.Version 5.7.3  of ABINIT

 ABINIT is a project of the Universite Catholique de Louvain,
 Corning Inc. and other collaborators, see ~abinit/doc/developers/contributors.txt .
 Please read ~abinit/doc/users/acknowledgments.html for suggested
 acknowledgments of the ABINIT effort.

.Starting date : Sun  2 Aug 2009.

- input  file    -> perovskite-frozen-phonon-X.in
- output file    -> perovskite-frozen-phonon-X.out
- root for input  files -> perovskite-frozen-phonon-X_i
- root for output files -> perovskite-frozen-phonon-X_o

 DATASET    1 : space group P4/m m m (#123); Bravais tP (primitive tetrag.)
   intxc =         0  ionmov =         0    iscf =         7 xclevel =         2
  lmnmax =         4   lnmax =         4   mband =        42  mffmem =         1
P  mgfft =       135   mkmem =         2 mpssoang=         4     mpw =     35310
  mqgrid =      3001   natom =        10    nfft =    699840    nkpt =        30
  nloalg =         4  nspden =         1 nspinor =         1  nsppol =         1
    nsym =        16  n1xccc =         0  ntypat =         3  occopt =         1
  Rough estimation (10% accuracy) of disk space for files :

 DATASET    2 : space group Pm m a (# 51); Bravais oP (primitive ortho.)
   intxc =         0  ionmov =         0    iscf =         7 xclevel =         2
  lmnmax =         4   lnmax =         4   mband =        42  mffmem =         1
P  mgfft =       135   mkmem =         3 mpssoang=         4     mpw =     35310
  mqgrid =      3001   natom =        10    nfft =    699840    nkpt =        48
  nloalg =         4  nspden =         1 nspinor =         1  nsppol =         1
    nsym =         8  n1xccc =         0  ntypat =         3  occopt =         1
  Rough estimation (10% accuracy) of disk space for files :

[...]

 DATASET    7 : space group P4/m m m (#123); Bravais tP (primitive tetrag.)
   intxc =         0  ionmov =         0    iscf =         7 xclevel =         2
  lmnmax =         4   lnmax =         4   mband =        42  mffmem =         1
P  mgfft =       135   mkmem =         2 mpssoang=         4     mpw =     35310
  mqgrid =      3001   natom =        10    nfft =    699840    nkpt =        30
  nloalg =         4  nspden =         1 nspinor =         1  nsppol =         1
    nsym =        16  n1xccc =         0  ntypat =         3  occopt =         1
  Rough estimation (10% accuracy) of disk space for files :

[...]

 DATASET   10 : space group Pm m m (# 47); Bravais oP (primitive ortho.)
   intxc =         0  ionmov =         0    iscf =         7 xclevel =         2
  lmnmax =         4   lnmax =         4   mband =        42  mffmem =         1
P  mgfft =       135   mkmem =         3 mpssoang=         4     mpw =     35310
  mqgrid =      3001   natom =        10    nfft =    699840    nkpt =        48
  nloalg =         4  nspden =         1 nspinor =         1  nsppol =         1
    nsym =         8  n1xccc =         0  ntypat =         3  occopt =         1
  Rough estimation (10% accuracy) of disk space for files :

[...]

 DATASET   13 : space group Pm m m (# 47); Bravais oP (primitive ortho.)
   intxc =         0  ionmov =         0    iscf =         7 xclevel =         2
  lmnmax =         4   lnmax =         4   mband =        42  mffmem =         1
P  mgfft =       135   mkmem =         3 mpssoang=         4     mpw =     35310
  mqgrid =      3001   natom =        10    nfft =    699840    nkpt =        48
  nloalg =         4  nspden =         1 nspinor =         1  nsppol =         1
    nsym =         8  n1xccc =         0  ntypat =         3  occopt =         1
  Rough estimation (10% accuracy) of disk space for files :

[...]

 DATASET   15 : space group Pm m a (# 51); Bravais oP (primitive ortho.)
   intxc =         0  ionmov =         0    iscf =         7 xclevel =         2
  lmnmax =         4   lnmax =         4   mband =        42  mffmem =         1
P  mgfft =       135   mkmem =         3 mpssoang=         4     mpw =     35310
  mqgrid =      3001   natom =        10    nfft =    699840    nkpt =        48
  nloalg =         4  nspden =         1 nspinor =         1  nsppol =         1
    nsym =         8  n1xccc =         0  ntypat =         3  occopt =         1
  Rough estimation (10% accuracy) of disk space for files :

 -outvars: echo values of preprocessed input variables --------
     acell    1.5064738506E+01  7.5323692530E+00  7.5323692530E+00 Bohr
       amu    1.37327000E+02  4.78800000E+01  1.59994000E+01
    diemac    1.20000000E+01
   dilatmx    1.20000000E+00
      ecut    6.30000000E+01 Hartree
    ecutsm    3.00000000E+00 Hartree
    getwfk        -1
       ixc        23
    jdtset      1    2    3    4    5    6    7    8    9   10
               11   12   13   14   15
       kpt1   8.33333333E-02  6.25000000E-02  6.25000000E-02
              2.50000000E-01  6.25000000E-02  6.25000000E-02
              4.16666667E-01  6.25000000E-02  6.25000000E-02
              8.33333333E-02  1.87500000E-01  6.25000000E-02
              2.50000000E-01  1.87500000E-01  6.25000000E-02
              4.16666667E-01  1.87500000E-01  6.25000000E-02
              8.33333333E-02  3.12500000E-01  6.25000000E-02
              2.50000000E-01  3.12500000E-01  6.25000000E-02
              4.16666667E-01  3.12500000E-01  6.25000000E-02
              8.33333333E-02  4.37500000E-01  6.25000000E-02
              2.50000000E-01  4.37500000E-01  6.25000000E-02
              4.16666667E-01  4.37500000E-01  6.25000000E-02
              8.33333333E-02  1.87500000E-01  1.87500000E-01
              2.50000000E-01  1.87500000E-01  1.87500000E-01
              4.16666667E-01  1.87500000E-01  1.87500000E-01
              8.33333333E-02  3.12500000E-01  1.87500000E-01
              2.50000000E-01  3.12500000E-01  1.87500000E-01
              4.16666667E-01  3.12500000E-01  1.87500000E-01
              8.33333333E-02  4.37500000E-01  1.87500000E-01
              2.50000000E-01  4.37500000E-01  1.87500000E-01
              4.16666667E-01  4.37500000E-01  1.87500000E-01
              8.33333333E-02  3.12500000E-01  3.12500000E-01
              2.50000000E-01  3.12500000E-01  3.12500000E-01
              4.16666667E-01  3.12500000E-01  3.12500000E-01
              8.33333333E-02  4.37500000E-01  3.12500000E-01
              2.50000000E-01  4.37500000E-01  3.12500000E-01
              4.16666667E-01  4.37500000E-01  3.12500000E-01
              8.33333333E-02  4.37500000E-01  4.37500000E-01
              2.50000000E-01  4.37500000E-01  4.37500000E-01
              4.16666667E-01  4.37500000E-01  4.37500000E-01
       kpt2   8.33333333E-02  6.25000000E-02  6.25000000E-02
              2.50000000E-01  6.25000000E-02  6.25000000E-02
              4.16666667E-01  6.25000000E-02  6.25000000E-02
              8.33333333E-02  1.87500000E-01  6.25000000E-02
              2.50000000E-01  1.87500000E-01  6.25000000E-02
              4.16666667E-01  1.87500000E-01  6.25000000E-02
              8.33333333E-02  3.12500000E-01  6.25000000E-02
              2.50000000E-01  3.12500000E-01  6.25000000E-02
              4.16666667E-01  3.12500000E-01  6.25000000E-02
              8.33333333E-02  4.37500000E-01  6.25000000E-02
              2.50000000E-01  4.37500000E-01  6.25000000E-02
              4.16666667E-01  4.37500000E-01  6.25000000E-02
              8.33333333E-02  6.25000000E-02  1.87500000E-01
              2.50000000E-01  6.25000000E-02  1.87500000E-01
              4.16666667E-01  6.25000000E-02  1.87500000E-01
              8.33333333E-02  1.87500000E-01  1.87500000E-01
              2.50000000E-01  1.87500000E-01  1.87500000E-01
              4.16666667E-01  1.87500000E-01  1.87500000E-01
              8.33333333E-02  3.12500000E-01  1.87500000E-01
              2.50000000E-01  3.12500000E-01  1.87500000E-01
              4.16666667E-01  3.12500000E-01  1.87500000E-01
              8.33333333E-02  4.37500000E-01  1.87500000E-01
              2.50000000E-01  4.37500000E-01  1.87500000E-01
              4.16666667E-01  4.37500000E-01  1.87500000E-01
              8.33333333E-02  6.25000000E-02  3.12500000E-01
              2.50000000E-01  6.25000000E-02  3.12500000E-01
              4.16666667E-01  6.25000000E-02  3.12500000E-01
              8.33333333E-02  1.87500000E-01  3.12500000E-01
              2.50000000E-01  1.87500000E-01  3.12500000E-01
              4.16666667E-01  1.87500000E-01  3.12500000E-01
              8.33333333E-02  3.12500000E-01  3.12500000E-01
              2.50000000E-01  3.12500000E-01  3.12500000E-01
              4.16666667E-01  3.12500000E-01  3.12500000E-01
              8.33333333E-02  4.37500000E-01  3.12500000E-01
              2.50000000E-01  4.37500000E-01  3.12500000E-01
              4.16666667E-01  4.37500000E-01  3.12500000E-01
              8.33333333E-02  6.25000000E-02  4.37500000E-01
              2.50000000E-01  6.25000000E-02  4.37500000E-01
              4.16666667E-01  6.25000000E-02  4.37500000E-01
              8.33333333E-02  1.87500000E-01  4.37500000E-01
              2.50000000E-01  1.87500000E-01  4.37500000E-01
              4.16666667E-01  1.87500000E-01  4.37500000E-01
              8.33333333E-02  3.12500000E-01  4.37500000E-01
              2.50000000E-01  3.12500000E-01  4.37500000E-01
              4.16666667E-01  3.12500000E-01  4.37500000E-01
              8.33333333E-02  4.37500000E-01  4.37500000E-01
              2.50000000E-01  4.37500000E-01  4.37500000E-01
              4.16666667E-01  4.37500000E-01  4.37500000E-01
       kpt3   8.33333333E-02  6.25000000E-02  6.25000000E-02
              2.50000000E-01  6.25000000E-02  6.25000000E-02
              4.16666667E-01  6.25000000E-02  6.25000000E-02
              8.33333333E-02  1.87500000E-01  6.25000000E-02
              2.50000000E-01  1.87500000E-01  6.25000000E-02
              4.16666667E-01  1.87500000E-01  6.25000000E-02
              8.33333333E-02  3.12500000E-01  6.25000000E-02
              2.50000000E-01  3.12500000E-01  6.25000000E-02
              4.16666667E-01  3.12500000E-01  6.25000000E-02
              8.33333333E-02  4.37500000E-01  6.25000000E-02
              2.50000000E-01  4.37500000E-01  6.25000000E-02
              4.16666667E-01  4.37500000E-01  6.25000000E-02
              8.33333333E-02  6.25000000E-02  1.87500000E-01
              2.50000000E-01  6.25000000E-02  1.87500000E-01
              4.16666667E-01  6.25000000E-02  1.87500000E-01
              8.33333333E-02  1.87500000E-01  1.87500000E-01
              2.50000000E-01  1.87500000E-01  1.87500000E-01
              4.16666667E-01  1.87500000E-01  1.87500000E-01
              8.33333333E-02  3.12500000E-01  1.87500000E-01
              2.50000000E-01  3.12500000E-01  1.87500000E-01
              4.16666667E-01  3.12500000E-01  1.87500000E-01
              8.33333333E-02  4.37500000E-01  1.87500000E-01
              2.50000000E-01  4.37500000E-01  1.87500000E-01
              4.16666667E-01  4.37500000E-01  1.87500000E-01
              8.33333333E-02  6.25000000E-02  3.12500000E-01
              2.50000000E-01  6.25000000E-02  3.12500000E-01
              4.16666667E-01  6.25000000E-02  3.12500000E-01
[...]
     xcart9   0.0000000000E+00  0.0000000000E+00  0.0000000000E+00
              3.7661846265E+00  3.7661846265E+00  3.7661846265E+00
              0.0000000000E+00  3.7661846265E+00  3.7812493650E+00
              3.7661846265E+00  0.0000000000E+00  3.7661846265E+00
              3.7661846265E+00  3.7661846265E+00  0.0000000000E+00
              7.5323692530E+00  0.0000000000E+00  0.0000000000E+00
              1.1298553880E+01  3.7661846265E+00  3.7661846265E+00
              7.5323692530E+00  3.7661846265E+00  3.7511198880E+00
              1.1298553880E+01  0.0000000000E+00  3.7661846265E+00
              1.1298553880E+01  3.7661846265E+00  0.0000000000E+00
     xcart10  0.0000000000E+00  0.0000000000E+00  0.0000000000E+00
              3.7661846265E+00  3.7661846265E+00  3.7661846265E+00
              0.0000000000E+00  3.7661846265E+00  3.7661846265E+00
              3.7812493650E+00  0.0000000000E+00  3.7661846265E+00
              3.7661846265E+00  3.7661846265E+00  0.0000000000E+00
              7.5323692530E+00  0.0000000000E+00  0.0000000000E+00
              1.1298553880E+01  3.7661846265E+00  3.7661846265E+00
              7.5323692530E+00  3.7661846265E+00  3.7661846265E+00
              1.1283489141E+01  0.0000000000E+00  3.7661846265E+00
              1.1298553880E+01  3.7661846265E+00  0.0000000000E+00
     xcart11  0.0000000000E+00  0.0000000000E+00  0.0000000000E+00
              3.7661846265E+00  3.7661846265E+00  3.7661846265E+00
              0.0000000000E+00  3.7661846265E+00  3.7661846265E+00
              3.7661846265E+00  1.5064738506E-02  3.7661846265E+00
              3.7661846265E+00  3.7661846265E+00  0.0000000000E+00
              7.5323692530E+00  0.0000000000E+00  0.0000000000E+00
              1.1298553880E+01  3.7661846265E+00  3.7661846265E+00
              7.5323692530E+00  3.7661846265E+00  3.7661846265E+00
              1.1298553880E+01 -1.5064738506E-02  3.7661846265E+00
              1.1298553880E+01  3.7661846265E+00  0.0000000000E+00
     xcart12  0.0000000000E+00  0.0000000000E+00  0.0000000000E+00
              3.7661846265E+00  3.7661846265E+00  3.7661846265E+00
              0.0000000000E+00  3.7661846265E+00  3.7661846265E+00
              3.7661846265E+00  0.0000000000E+00  3.7812493650E+00
              3.7661846265E+00  3.7661846265E+00  0.0000000000E+00
              7.5323692530E+00  0.0000000000E+00  0.0000000000E+00
              1.1298553880E+01  3.7661846265E+00  3.7661846265E+00
              7.5323692530E+00  3.7661846265E+00  3.7661846265E+00
              1.1298553880E+01  0.0000000000E+00  3.7511198880E+00
              1.1298553880E+01  3.7661846265E+00  0.0000000000E+00
     xcart13  0.0000000000E+00  0.0000000000E+00  0.0000000000E+00
              3.7661846265E+00  3.7661846265E+00  3.7661846265E+00
              0.0000000000E+00  3.7661846265E+00  3.7661846265E+00
              3.7661846265E+00  0.0000000000E+00  3.7661846265E+00
              3.7812493650E+00  3.7661846265E+00  0.0000000000E+00
              7.5323692530E+00  0.0000000000E+00  0.0000000000E+00
              1.1298553880E+01  3.7661846265E+00  3.7661846265E+00
              7.5323692530E+00  3.7661846265E+00  3.7661846265E+00
              1.1298553880E+01  0.0000000000E+00  3.7661846265E+00
              1.1283489141E+01  3.7661846265E+00  0.0000000000E+00
     xcart14  0.0000000000E+00  0.0000000000E+00  0.0000000000E+00
              3.7661846265E+00  3.7661846265E+00  3.7661846265E+00
              0.0000000000E+00  3.7661846265E+00  3.7661846265E+00
              3.7661846265E+00  0.0000000000E+00  3.7661846265E+00
              3.7661846265E+00  3.7812493650E+00  0.0000000000E+00
              7.5323692530E+00  0.0000000000E+00  0.0000000000E+00
              1.1298553880E+01  3.7661846265E+00  3.7661846265E+00
              7.5323692530E+00  3.7661846265E+00  3.7661846265E+00
              1.1298553880E+01  0.0000000000E+00  3.7661846265E+00
              1.1298553880E+01  3.7511198880E+00  0.0000000000E+00
     xcart15  0.0000000000E+00  0.0000000000E+00  0.0000000000E+00
              3.7661846265E+00  3.7661846265E+00  3.7661846265E+00
              0.0000000000E+00  3.7661846265E+00  3.7661846265E+00
              3.7661846265E+00  0.0000000000E+00  3.7661846265E+00
              3.7661846265E+00  3.7661846265E+00  1.5064738506E-02
              7.5323692530E+00  0.0000000000E+00  0.0000000000E+00
              1.1298553880E+01  3.7661846265E+00  3.7661846265E+00
              7.5323692530E+00  3.7661846265E+00  3.7661846265E+00
              1.1298553880E+01  0.0000000000E+00  3.7661846265E+00
              1.1298553880E+01  3.7661846265E+00 -1.5064738506E-02
      xred1   1.0000000000E-03  0.0000000000E+00  0.0000000000E+00
              2.5000000000E-01  5.0000000000E-01  5.0000000000E-01
              0.0000000000E+00  5.0000000000E-01  5.0000000000E-01
              2.5000000000E-01  0.0000000000E+00  5.0000000000E-01
              2.5000000000E-01  5.0000000000E-01  0.0000000000E+00
              4.9900000000E-01  0.0000000000E+00  0.0000000000E+00
              7.5000000000E-01  5.0000000000E-01  5.0000000000E-01
              5.0000000000E-01  5.0000000000E-01  5.0000000000E-01
              7.5000000000E-01  0.0000000000E+00  5.0000000000E-01
              7.5000000000E-01  5.0000000000E-01  0.0000000000E+00
      xred2   0.0000000000E+00  2.0000000000E-03  0.0000000000E+00
              2.5000000000E-01  5.0000000000E-01  5.0000000000E-01
              0.0000000000E+00  5.0000000000E-01  5.0000000000E-01
              2.5000000000E-01  0.0000000000E+00  5.0000000000E-01
              2.5000000000E-01  5.0000000000E-01  0.0000000000E+00
              5.0000000000E-01 -2.0000000000E-03  0.0000000000E+00
              7.5000000000E-01  5.0000000000E-01  5.0000000000E-01
              5.0000000000E-01  5.0000000000E-01  5.0000000000E-01
              7.5000000000E-01  0.0000000000E+00  5.0000000000E-01
              7.5000000000E-01  5.0000000000E-01  0.0000000000E+00
      xred3   0.0000000000E+00  0.0000000000E+00  2.0000000000E-03
              2.5000000000E-01  5.0000000000E-01  5.0000000000E-01
              0.0000000000E+00  5.0000000000E-01  5.0000000000E-01
              2.5000000000E-01  0.0000000000E+00  5.0000000000E-01
              2.5000000000E-01  5.0000000000E-01  0.0000000000E+00
              5.0000000000E-01  0.0000000000E+00 -2.0000000000E-03
              7.5000000000E-01  5.0000000000E-01  5.0000000000E-01
              5.0000000000E-01  5.0000000000E-01  5.0000000000E-01
              7.5000000000E-01  0.0000000000E+00  5.0000000000E-01
              7.5000000000E-01  5.0000000000E-01  0.0000000000E+00
      xred4   0.0000000000E+00  0.0000000000E+00  0.0000000000E+00
              2.5100000000E-01  5.0000000000E-01  5.0000000000E-01
              0.0000000000E+00  5.0000000000E-01  5.0000000000E-01
              2.5000000000E-01  0.0000000000E+00  5.0000000000E-01
              2.5000000000E-01  5.0000000000E-01  0.0000000000E+00
              5.0000000000E-01  0.0000000000E+00  0.0000000000E+00
              7.4900000000E-01  5.0000000000E-01  5.0000000000E-01
              5.0000000000E-01  5.0000000000E-01  5.0000000000E-01
              7.5000000000E-01  0.0000000000E+00  5.0000000000E-01
              7.5000000000E-01  5.0000000000E-01  0.0000000000E+00
      xred5   0.0000000000E+00  0.0000000000E+00  0.0000000000E+00
              2.5000000000E-01  5.0200000000E-01  5.0000000000E-01
              0.0000000000E+00  5.0000000000E-01  5.0000000000E-01
              2.5000000000E-01  0.0000000000E+00  5.0000000000E-01
              2.5000000000E-01  5.0000000000E-01  0.0000000000E+00
              5.0000000000E-01  0.0000000000E+00  0.0000000000E+00
              7.5000000000E-01  4.9800000000E-01  5.0000000000E-01
              5.0000000000E-01  5.0000000000E-01  5.0000000000E-01
              7.5000000000E-01  0.0000000000E+00  5.0000000000E-01
              7.5000000000E-01  5.0000000000E-01  0.0000000000E+00
      xred6   0.0000000000E+00  0.0000000000E+00  0.0000000000E+00
              2.5000000000E-01  5.0000000000E-01  5.0200000000E-01
              0.0000000000E+00  5.0000000000E-01  5.0000000000E-01
              2.5000000000E-01  0.0000000000E+00  5.0000000000E-01
              2.5000000000E-01  5.0000000000E-01  0.0000000000E+00
              5.0000000000E-01  0.0000000000E+00  0.0000000000E+00
              7.5000000000E-01  5.0000000000E-01  4.9800000000E-01
              5.0000000000E-01  5.0000000000E-01  5.0000000000E-01
              7.5000000000E-01  0.0000000000E+00  5.0000000000E-01
              7.5000000000E-01  5.0000000000E-01  0.0000000000E+00
      xred7   0.0000000000E+00  0.0000000000E+00  0.0000000000E+00
              2.5000000000E-01  5.0000000000E-01  5.0000000000E-01
              1.0000000000E-03  5.0000000000E-01  5.0000000000E-01
              2.5000000000E-01  0.0000000000E+00  5.0000000000E-01
              2.5000000000E-01  5.0000000000E-01  0.0000000000E+00
              5.0000000000E-01  0.0000000000E+00  0.0000000000E+00
              7.5000000000E-01  5.0000000000E-01  5.0000000000E-01
              4.9900000000E-01  5.0000000000E-01  5.0000000000E-01
              7.5000000000E-01  0.0000000000E+00  5.0000000000E-01
              7.5000000000E-01  5.0000000000E-01  0.0000000000E+00
      xred8   0.0000000000E+00  0.0000000000E+00  0.0000000000E+00
              2.5000000000E-01  5.0000000000E-01  5.0000000000E-01
              0.0000000000E+00  5.0200000000E-01  5.0000000000E-01
              2.5000000000E-01  0.0000000000E+00  5.0000000000E-01
              2.5000000000E-01  5.0000000000E-01  0.0000000000E+00
              5.0000000000E-01  0.0000000000E+00  0.0000000000E+00
              7.5000000000E-01  5.0000000000E-01  5.0000000000E-01
              5.0000000000E-01  4.9800000000E-01  5.0000000000E-01
              7.5000000000E-01  0.0000000000E+00  5.0000000000E-01
              7.5000000000E-01  5.0000000000E-01  0.0000000000E+00
      xred9   0.0000000000E+00  0.0000000000E+00  0.0000000000E+00
              2.5000000000E-01  5.0000000000E-01  5.0000000000E-01
              0.0000000000E+00  5.0000000000E-01  5.0200000000E-01
              2.5000000000E-01  0.0000000000E+00  5.0000000000E-01
              2.5000000000E-01  5.0000000000E-01  0.0000000000E+00
              5.0000000000E-01  0.0000000000E+00  0.0000000000E+00
              7.5000000000E-01  5.0000000000E-01  5.0000000000E-01
              5.0000000000E-01  5.0000000000E-01  4.9800000000E-01
              7.5000000000E-01  0.0000000000E+00  5.0000000000E-01
              7.5000000000E-01  5.0000000000E-01  0.0000000000E+00
      xred10  0.0000000000E+00  0.0000000000E+00  0.0000000000E+00
              2.5000000000E-01  5.0000000000E-01  5.0000000000E-01
              0.0000000000E+00  5.0000000000E-01  5.0000000000E-01
              2.5100000000E-01  0.0000000000E+00  5.0000000000E-01
              2.5000000000E-01  5.0000000000E-01  0.0000000000E+00
              5.0000000000E-01  0.0000000000E+00  0.0000000000E+00
              7.5000000000E-01  5.0000000000E-01  5.0000000000E-01
              5.0000000000E-01  5.0000000000E-01  5.0000000000E-01
              7.4900000000E-01  0.0000000000E+00  5.0000000000E-01
              7.5000000000E-01  5.0000000000E-01  0.0000000000E+00
      xred11  0.0000000000E+00  0.0000000000E+00  0.0000000000E+00
              2.5000000000E-01  5.0000000000E-01  5.0000000000E-01
              0.0000000000E+00  5.0000000000E-01  5.0000000000E-01
              2.5000000000E-01  2.0000000000E-03  5.0000000000E-01
              2.5000000000E-01  5.0000000000E-01  0.0000000000E+00
              5.0000000000E-01  0.0000000000E+00  0.0000000000E+00
              7.5000000000E-01  5.0000000000E-01  5.0000000000E-01
              5.0000000000E-01  5.0000000000E-01  5.0000000000E-01
              7.5000000000E-01 -2.0000000000E-03  5.0000000000E-01
              7.5000000000E-01  5.0000000000E-01  0.0000000000E+00
      xred12  0.0000000000E+00  0.0000000000E+00  0.0000000000E+00
              2.5000000000E-01  5.0000000000E-01  5.0000000000E-01
              0.0000000000E+00  5.0000000000E-01  5.0000000000E-01
              2.5000000000E-01  0.0000000000E+00  5.0200000000E-01
              2.5000000000E-01  5.0000000000E-01  0.0000000000E+00
              5.0000000000E-01  0.0000000000E+00  0.0000000000E+00
              7.5000000000E-01  5.0000000000E-01  5.0000000000E-01
              5.0000000000E-01  5.0000000000E-01  5.0000000000E-01
              7.5000000000E-01  0.0000000000E+00  4.9800000000E-01
              7.5000000000E-01  5.0000000000E-01  0.0000000000E+00
      xred13  0.0000000000E+00  0.0000000000E+00  0.0000000000E+00
              2.5000000000E-01  5.0000000000E-01  5.0000000000E-01
              0.0000000000E+00  5.0000000000E-01  5.0000000000E-01
              2.5000000000E-01  0.0000000000E+00  5.0000000000E-01
              2.5100000000E-01  5.0000000000E-01  0.0000000000E+00
              5.0000000000E-01  0.0000000000E+00  0.0000000000E+00
              7.5000000000E-01  5.0000000000E-01  5.0000000000E-01
              5.0000000000E-01  5.0000000000E-01  5.0000000000E-01
              7.5000000000E-01  0.0000000000E+00  5.0000000000E-01
              7.4900000000E-01  5.0000000000E-01  0.0000000000E+00
      xred14  0.0000000000E+00  0.0000000000E+00  0.0000000000E+00
              2.5000000000E-01  5.0000000000E-01  5.0000000000E-01
              0.0000000000E+00  5.0000000000E-01  5.0000000000E-01
              2.5000000000E-01  0.0000000000E+00  5.0000000000E-01
              2.5000000000E-01  5.0200000000E-01  0.0000000000E+00
              5.0000000000E-01  0.0000000000E+00  0.0000000000E+00
              7.5000000000E-01  5.0000000000E-01  5.0000000000E-01
              5.0000000000E-01  5.0000000000E-01  5.0000000000E-01
              7.5000000000E-01  0.0000000000E+00  5.0000000000E-01
              7.5000000000E-01  4.9800000000E-01  0.0000000000E+00
      xred15  0.0000000000E+00  0.0000000000E+00  0.0000000000E+00
              2.5000000000E-01  5.0000000000E-01  5.0000000000E-01
              0.0000000000E+00  5.0000000000E-01  5.0000000000E-01
              2.5000000000E-01  0.0000000000E+00  5.0000000000E-01
              2.5000000000E-01  5.0000000000E-01  2.0000000000E-03
              5.0000000000E-01  0.0000000000E+00  0.0000000000E+00
              7.5000000000E-01  5.0000000000E-01  5.0000000000E-01
              5.0000000000E-01  5.0000000000E-01  5.0000000000E-01
              7.5000000000E-01  0.0000000000E+00  5.0000000000E-01
              7.5000000000E-01  5.0000000000E-01 -2.0000000000E-03
     znucl     56.00000   22.00000    8.00000

- Timing analysis has been suppressed with timopt=0

 Suggested references for the acknowledgment of ABINIT usage.

 [1] Ab initio pseudopotentials for electronic structure calculations of poly-atomic systems,
 using density-functional theory.
 M. Fuchs, M. Scheffler, Comput. Phys. Commun. 119, 67 (1999).
 Comment : Some pseudopotential generated using the FHI code were used.

 [2] A brief introduction to the ABINIT software package.
 X. Gonze, G.-M. Rignanese, M. Verstraete, J.-M. Beuken, Y. Pouillon, R. Caracas, F. Jollet,
 M. Torrent, G. Zerah, M. Mikami, Ph. Ghosez, M. Veithen, J.-Y. Raty, V. Olevano, F. Bruneval,
 L. Reining, R. Godby, G. Onida, D.R. Hamann, and D.C. Allan.
 Z. Kristallogr. 220, 558-562 (2005).
 Comment : the second generic paper describing the ABINIT project. Note that this paper
 should be cited, especially if you are using the GW part of ABINIT, as the authors
 of this part are not in the list of authors of the first paper.
 Note that it should not redistributed (Copyright by Oldenburg Wissenshaftverlag,
 the licence allows the authors to put it on the Web).

 [3] First-principles computation of material properties : the ABINIT software project.
 X. Gonze, J.-M. Beuken, R. Caracas, F. Detraux, M. Fuchs, G.-M. Rignanese, L. Sindic,
 M. Verstraete, G. Zerah, F. Jollet, M. Torrent, A. Roy, M. Mikami, Ph. Ghosez, J.-Y. Raty, D.C. Allan.
 Comment : the original paper describing the ABINIT project.

 And optionally :

 [4] Fast radix 2, 3, 4 and 5 kernels for Fast Fourier Transformations
 on computers with overlapping multiply-add instructions.
 S. Goedecker, SIAM J. on Scientific Computing 18, 1605 (1997).

 [5] Iterative minimization techniques for ab initio total-energy calculations:
 molecular dynamics and conjugate gradients.
 M.C. Payne, M.P. Teter, D.C. Allan, T.A. Arias and J.D. Joannopoulos, Rev. Mod. Phys. 64, 1045 (1992).
-

 Calculation completed.
.Delivered    6 WARNINGs and  27 COMMENTs to log file.