.Version 5.7.3  of ABINIT

 ABINIT is a project of the Universite Catholique de Louvain,
 Corning Inc. and other collaborators, see ~abinit/doc/developers/contributors.txt .
 Please read ~abinit/doc/users/acknowledgments.html for suggested
 acknowledgments of the ABINIT effort.

.Starting date : Sun  2 Aug 2009.

- input  file    -> perovskite-tetragonal.in
- output file    -> perovskite-tetragonal.out
- root for input  files -> perovskite-tetragonal_i
- root for output files -> perovskite-tetragonal_o

 Symmetries : space group P4 m m (# 99); Bravais tP (primitive tetrag.)
   intxc =         0  ionmov =         2    iscf =         7 xclevel =         2
  lmnmax =         4   lnmax =         4   mband =        21  mffmem =         1
P  mgfft =        72   mkmem =         3 mpssoang=         4     mpw =     17085
  mqgrid =      3001   natom =         5    nfft =    294912    nkpt =        40
  nloalg =         4  nspden =         1 nspinor =         1  nsppol =         1
    nsym =         8  n1xccc =         0  ntypat =         3  occopt =         1
  Rough estimation (10% accuracy) of disk space for files :

 -outvars: echo values of preprocessed input variables --------
     acell    7.4386120087E+00  7.4386120087E+00  7.4662411534E+00 Bohr
       amu    1.37327000E+02  4.78800000E+01  1.59994000E+01
    diemac    1.20000000E+01
   dilatmx    1.20000000E+00
      ecut    6.30000000E+01 Hartree
    ecutsm    3.00000000E+00 Hartree
    ionmov         2
       ixc        23
       kpt    6.25000000E-02  6.25000000E-02  6.25000000E-02
              1.87500000E-01  6.25000000E-02  6.25000000E-02
              3.12500000E-01  6.25000000E-02  6.25000000E-02
              4.37500000E-01  6.25000000E-02  6.25000000E-02
              1.87500000E-01  1.87500000E-01  6.25000000E-02
              3.12500000E-01  1.87500000E-01  6.25000000E-02
              4.37500000E-01  1.87500000E-01  6.25000000E-02
              3.12500000E-01  3.12500000E-01  6.25000000E-02
              4.37500000E-01  3.12500000E-01  6.25000000E-02
              4.37500000E-01  4.37500000E-01  6.25000000E-02
              6.25000000E-02  6.25000000E-02  1.87500000E-01
              1.87500000E-01  6.25000000E-02  1.87500000E-01
              3.12500000E-01  6.25000000E-02  1.87500000E-01
              4.37500000E-01  6.25000000E-02  1.87500000E-01
              1.87500000E-01  1.87500000E-01  1.87500000E-01
              3.12500000E-01  1.87500000E-01  1.87500000E-01
              4.37500000E-01  1.87500000E-01  1.87500000E-01
              3.12500000E-01  3.12500000E-01  1.87500000E-01
              4.37500000E-01  3.12500000E-01  1.87500000E-01
              4.37500000E-01  4.37500000E-01  1.87500000E-01
              6.25000000E-02  6.25000000E-02  3.12500000E-01
              1.87500000E-01  6.25000000E-02  3.12500000E-01
              3.12500000E-01  6.25000000E-02  3.12500000E-01
              4.37500000E-01  6.25000000E-02  3.12500000E-01
              1.87500000E-01  1.87500000E-01  3.12500000E-01
              3.12500000E-01  1.87500000E-01  3.12500000E-01
              4.37500000E-01  1.87500000E-01  3.12500000E-01
              3.12500000E-01  3.12500000E-01  3.12500000E-01
              4.37500000E-01  3.12500000E-01  3.12500000E-01
              4.37500000E-01  4.37500000E-01  3.12500000E-01
              6.25000000E-02  6.25000000E-02  4.37500000E-01
              1.87500000E-01  6.25000000E-02  4.37500000E-01
              3.12500000E-01  6.25000000E-02  4.37500000E-01
              4.37500000E-01  6.25000000E-02  4.37500000E-01
              1.87500000E-01  1.87500000E-01  4.37500000E-01
              3.12500000E-01  1.87500000E-01  4.37500000E-01
              4.37500000E-01  1.87500000E-01  4.37500000E-01
              3.12500000E-01  3.12500000E-01  4.37500000E-01
              4.37500000E-01  3.12500000E-01  4.37500000E-01
              4.37500000E-01  4.37500000E-01  4.37500000E-01
   kptrlen    5.95088961E+01
    kptopt         1
  kptrlatt    8  0  0   0  8  0   0  0  8
P    mkmem         3
     natom         5
     nband        21
     ngfft        64      64      72
      nkpt        40
     nstep        45
      nsym         8
     ntime        20
    ntypat         3
       occ    2.000000  2.000000  2.000000  2.000000  2.000000  2.000000
              2.000000  2.000000  2.000000  2.000000  2.000000  2.000000
              2.000000  2.000000  2.000000  2.000000  2.000000  2.000000
              2.000000  2.000000  0.000000
   optcell         2
    prtden         0
     prtwf         0
    shiftk    5.00000000E-01  5.00000000E-01  5.00000000E-01
   spgroup        99
    symrel    1  0  0   0  1  0   0  0  1       1  0  0   0 -1  0   0  0  1
             -1  0  0   0 -1  0   0  0  1      -1  0  0   0  1  0   0  0  1
              0  1  0   1  0  0   0  0  1       0  1  0  -1  0  0   0  0  1
              0 -1  0  -1  0  0   0  0  1       0 -1  0   1  0  0   0  0  1
    toldff    5.00000000E-07
    tolmxf    1.00000000E-06
     typat    1  2  3  3  3
       wtk      0.01563    0.03125    0.03125    0.03125    0.01563    0.03125
                0.03125    0.01563    0.03125    0.01563    0.01563    0.03125
                0.03125    0.03125    0.01563    0.03125    0.03125    0.01563
                0.03125    0.01563    0.01563    0.03125    0.03125    0.03125
                0.01563    0.03125    0.03125    0.01563    0.03125    0.01563
                0.01563    0.03125    0.03125    0.03125    0.01563    0.03125
                0.03125    0.01563    0.03125    0.01563
    xangst    0.0000000000E+00  0.0000000000E+00  1.5268659347E-02
              1.9681719693E+00  1.9681719693E+00  2.0204053997E+00
              0.0000000000E+00  1.9681719693E+00  1.9594420553E+00
              1.9681719693E+00  0.0000000000E+00  1.9594420553E+00
              1.9681719693E+00  1.9681719693E+00 -2.8111191385E-02
     xcart    0.0000000000E+00  0.0000000000E+00  2.8853584583E-02
              3.7193060043E+00  3.7193060043E+00  3.8180128828E+00
              0.0000000000E+00  3.7193060043E+00  3.7028088578E+00
              3.7193060043E+00  0.0000000000E+00  3.7028088578E+00
              3.7193060043E+00  3.7193060043E+00 -5.3122452986E-02
      xred    0.0000000000E+00  0.0000000000E+00  3.8645395976E-03
              5.0000000000E-01  5.0000000000E-01  5.1137015325E-01
              0.0000000000E+00  5.0000000000E-01  4.9594016343E-01
              5.0000000000E-01  0.0000000000E+00  4.9594016343E-01
              5.0000000000E-01  5.0000000000E-01 -7.1150197127E-03
     znucl     56.00000   22.00000    8.00000

 chkinp: Checking input parameters for consistency.

== DATASET  1 ==================================================================

 Real(R)+Recip(G) space primitive vectors, cartesian coordinates (Bohr,Bohr^-1):
 R(1)=  7.4386120  0.0000000  0.0000000  G(1)=  0.1344337  0.0000000  0.0000000
 R(2)=  0.0000000  7.4386120  0.0000000  G(2)=  0.0000000  0.1344337  0.0000000
 R(3)=  0.0000000  0.0000000  7.4662412  G(3)=  0.0000000  0.0000000  0.1339362
 Unit cell volume ucvol=  4.1312914E+02 bohr^3
 Angles (23,13,12)=  9.00000000E+01  9.00000000E+01  9.00000000E+01 degrees

 getcut: wavevector=  0.0000  0.0000  0.0000  ngfft=  64  64  72
         ecut(hartree)=     90.720   => boxcut(ratio)=   2.00665

--- Pseudopotential description ------------------------------------------------
- pspini: atom type   1  psp file is ba.wcgga.fhi
- pspatm: opening atomic psp file    ba.wcgga.fhi
 OPIUM generated Ba potential
  56.00000  10.00000     90731                znucl, zion, pspdat
    6   23    3    3      1179   0.00000      pspcod,pspxc,lmax,lloc,mmax,r2well
    0.00000000000000    0.00000000000000    0.00000000000000   rchrg,fchrg,qchrg
  1.013085          amesh (Hamman grid)
 pspatm: epsatm=   82.20741810
         --- l  ekb(1:nproj) -->
             0   -1.025000
             1   -0.812020
             2   -5.512288
 pspatm: atomic psp has been read  and splines computed

- pspini: atom type   2  psp file is ti.wcgga.fhi
- pspatm: opening atomic psp file    ti.wcgga.fhi
 OPIUM generated Ti potential
  22.00000  12.00000     90731                znucl, zion, pspdat
    6   23    3    3      1156   0.00000      pspcod,pspxc,lmax,lloc,mmax,r2well
    0.00000000000000    0.00000000000000    0.00000000000000   rchrg,fchrg,qchrg
  1.013085          amesh (Hamman grid)
 pspatm: epsatm=   51.36980524
         --- l  ekb(1:nproj) -->
             0   -5.227900
             1   -6.911342
             2   -8.639772
 pspatm: atomic psp has been read  and splines computed

- pspini: atom type   3  psp file is o.wcgga.fhi
- pspatm: opening atomic psp file    o.wcgga.fhi
 OPIUM generated O potential
   8.00000   6.00000     90731                znucl, zion, pspdat
    6   23    1    0      1130   0.00000      pspcod,pspxc,lmax,lloc,mmax,r2well
    0.00000000000000    0.00000000000000    0.00000000000000   rchrg,fchrg,qchrg
  1.013085          amesh (Hamman grid)
 pspatm: epsatm=    7.84256607
         --- l  ekb(1:nproj) -->
             1   -3.641985
 pspatm: atomic psp has been read  and splines computed

   6.28419686E+03                                ecore*ucvol(ha*bohr**3)

P newkpt: treating     21 bands with npw=   17036 for ikpt=   1 by node    0
P newkpt: treating     21 bands with npw=   17041 for ikpt=   2 by node    0
P newkpt: treating     21 bands with npw=   17047 for ikpt=   3 by node    0
P newkpt: treating     21 bands with npw=   17030 for ikpt=   4 by node    1
P newkpt: treating     21 bands with npw=   17046 for ikpt=   5 by node    1
P newkpt: treating     21 bands with npw=   17031 for ikpt=   6 by node    1
P newkpt: treating     21 bands with npw=   17027 for ikpt=   7 by node    2
P newkpt: treating     21 bands with npw=   17043 for ikpt=   8 by node    2
P newkpt: treating     21 bands with npw=   17050 for ikpt=   9 by node    2
P newkpt: treating     21 bands with npw=   17048 for ikpt=  10 by node    3
P newkpt: treating     21 bands with npw=   17068 for ikpt=  11 by node    3
P newkpt: treating     21 bands with npw=   17033 for ikpt=  12 by node    3
P newkpt: treating     21 bands with npw=   17035 for ikpt=  13 by node    4
P newkpt: treating     21 bands with npw=   17023 for ikpt=  14 by node    4
P newkpt: treating     21 bands with npw=   17051 for ikpt=  15 by node    4
P newkpt: treating     21 bands with npw=   17047 for ikpt=  16 by node    5
P newkpt: treating     21 bands with npw=   17060 for ikpt=  17 by node    5
P newkpt: treating     21 bands with npw=   17066 for ikpt=  18 by node    5
P newkpt: treating     21 bands with npw=   17069 for ikpt=  19 by node    6
P newkpt: treating     21 bands with npw=   17060 for ikpt=  20 by node    6
P newkpt: treating     21 bands with npw=   17042 for ikpt=  21 by node    6
P newkpt: treating     21 bands with npw=   17044 for ikpt=  22 by node    7
P newkpt: treating     21 bands with npw=   17042 for ikpt=  23 by node    7
P newkpt: treating     21 bands with npw=   17051 for ikpt=  24 by node    7
P newkpt: treating     21 bands with npw=   17053 for ikpt=  25 by node    8
[...]
  -0.35541  -0.34915  -0.33935  -0.13245  -0.10588  -0.09226  -0.08867  -0.07591
  -0.05817  -0.02500  -0.01895  -0.01226   0.12347
 kpt#  18, nband= 21, wtk=  0.01563, kpt=  0.3125  0.3125  0.1875 (reduced coord)
  -2.01190  -1.17449  -1.17300  -1.17298  -0.88513  -0.58951  -0.56770  -0.56723
  -0.35814  -0.35657  -0.33825  -0.12607  -0.10767  -0.10345  -0.08303  -0.07517
  -0.06948  -0.02265  -0.01521   0.00130   0.13590
 kpt#  19, nband= 21, wtk=  0.03125, kpt=  0.4375  0.3125  0.1875 (reduced coord)
  -2.01188  -1.17447  -1.17360  -1.17296  -0.88420  -0.58756  -0.56708  -0.56489
  -0.36047  -0.35654  -0.34365  -0.13452  -0.11312  -0.10950  -0.08816  -0.07787
  -0.06664  -0.02277  -0.01684   0.00541   0.13934
 kpt#  20, nband= 21, wtk=  0.01563, kpt=  0.4375  0.4375  0.1875 (reduced coord)
  -2.01187  -1.17444  -1.17356  -1.17356  -0.88337  -0.58203  -0.56603  -0.56563
  -0.36168  -0.36138  -0.34886  -0.13973  -0.12287  -0.11465  -0.08461  -0.08094
  -0.07342  -0.01691  -0.01397   0.01396   0.15236
 kpt#  21, nband= 21, wtk=  0.01563, kpt=  0.0625  0.0625  0.3125 (reduced coord)
  -2.01196  -1.17531  -1.17154  -1.17154  -0.88859  -0.60078  -0.56950  -0.56938
  -0.34762  -0.34633  -0.33841  -0.11418  -0.08241  -0.07992  -0.06282  -0.06041
  -0.03886  -0.03539  -0.01015  -0.00735   0.09086
 kpt#  22, nband= 21, wtk=  0.03125, kpt=  0.1875  0.0625  0.3125 (reduced coord)
  -2.01194  -1.17528  -1.17216  -1.17152  -0.88762  -0.59702  -0.57147  -0.56821
  -0.35031  -0.34611  -0.33756  -0.11720  -0.09717  -0.08309  -0.07692  -0.06552
  -0.04044  -0.02594  -0.01796  -0.01024   0.10852
 kpt#  23, nband= 21, wtk=  0.03125, kpt=  0.3125  0.0625  0.3125 (reduced coord)
  -2.01192  -1.17523  -1.17303  -1.17148  -0.88621  -0.59307  -0.57264  -0.56651
  -0.35157  -0.34636  -0.33817  -0.12354  -0.11374  -0.09929  -0.08129  -0.07321
  -0.04349  -0.03011  -0.02010  -0.00351   0.12960
 kpt#  24, nband= 21, wtk=  0.03125, kpt=  0.4375  0.0625  0.3125 (reduced coord)
  -2.01190  -1.17519  -1.17364  -1.17146  -0.88521  -0.59205  -0.57147  -0.56531
  -0.35062  -0.34781  -0.33900  -0.13376  -0.12041  -0.10976  -0.08765  -0.07444
  -0.04486  -0.02926  -0.02261  -0.00134   0.13323
 kpt#  25, nband= 21, wtk=  0.01563, kpt=  0.1875  0.1875  0.3125 (reduced coord)
  -2.01193  -1.17525  -1.17214  -1.17212  -0.88670  -0.59298  -0.57162  -0.56777
  -0.35489  -0.35112  -0.33485  -0.12039  -0.10274  -0.08911  -0.07886  -0.07049
  -0.05487  -0.01781  -0.01428  -0.01333   0.12011
 kpt#  26, nband= 21, wtk=  0.03125, kpt=  0.3125  0.1875  0.3125 (reduced coord)
  -2.01190  -1.17520  -1.17300  -1.17209  -0.88538  -0.58852  -0.57127  -0.56623
  -0.35766  -0.35551  -0.33762  -0.12536  -0.11113  -0.10005  -0.08352  -0.07499
  -0.06513  -0.02064  -0.01073  -0.00572   0.13556
 kpt#  27, nband= 21, wtk=  0.03125, kpt=  0.4375  0.1875  0.3125 (reduced coord)
  -2.01189  -1.17516  -1.17361  -1.17207  -0.88443  -0.58704  -0.56947  -0.56481
  -0.35887  -0.35591  -0.34309  -0.13413  -0.11340  -0.10805  -0.08847  -0.07663
  -0.06589  -0.02116  -0.01138  -0.00237   0.13859
 kpt#  28, nband= 21, wtk=  0.01563, kpt=  0.3125  0.3125  0.3125 (reduced coord)
  -2.01188  -1.17516  -1.17296  -1.17295  -0.88418  -0.58278  -0.56882  -0.56539
  -0.36446  -0.36220  -0.34443  -0.12718  -0.10890  -0.10786  -0.09202  -0.07686
  -0.07518  -0.01172  -0.00821   0.00035   0.14697
 kpt#  29, nband= 21, wtk=  0.03125, kpt=  0.4375  0.3125  0.3125 (reduced coord)
  -2.01187  -1.17512  -1.17356  -1.17293  -0.88333  -0.57985  -0.56639  -0.56415
  -0.36759  -0.36478  -0.35262  -0.13532  -0.11272  -0.10666  -0.09869  -0.07670
  -0.07378  -0.01245  -0.00381   0.00530   0.15026
 kpt#  30, nband= 21, wtk=  0.01563, kpt=  0.4375  0.4375  0.3125 (reduced coord)
  -2.01185  -1.17510  -1.17353  -1.17353  -0.88253  -0.57480  -0.56397  -0.56363
  -0.37074  -0.37071  -0.36161  -0.14045  -0.12268  -0.10680  -0.09409  -0.07616
  -0.07572  -0.00489  -0.00301   0.01459   0.16034
 kpt#  31, nband= 21, wtk=  0.01563, kpt=  0.0625  0.0625  0.4375 (reduced coord)
  -2.01195  -1.17580  -1.17152  -1.17152  -0.88750  -0.60382  -0.56899  -0.56596
  -0.34653  -0.34393  -0.33504  -0.12947  -0.08721  -0.08499  -0.07254  -0.06515
  -0.04416  -0.03988  -0.01407  -0.01053   0.09223
 kpt#  32, nband= 21, wtk=  0.03125, kpt=  0.1875  0.0625  0.4375 (reduced coord)
  -2.01193  -1.17576  -1.17213  -1.17150  -0.88664  -0.59862  -0.56876  -0.56770
  -0.34959  -0.34259  -0.33854  -0.13083  -0.10325  -0.08787  -0.08438  -0.06938
  -0.03968  -0.02880  -0.01999  -0.01581   0.10969
 kpt#  33, nband= 21, wtk=  0.03125, kpt=  0.3125  0.0625  0.4375 (reduced coord)
  -2.01191  -1.17570  -1.17300  -1.17147  -0.88541  -0.59075  -0.57188  -0.56701
  -0.35196  -0.34594  -0.33930  -0.13275  -0.12277  -0.10679  -0.08436  -0.07846
  -0.04105  -0.02949  -0.02025  -0.00114   0.13138
 kpt#  34, nband= 21, wtk=  0.03125, kpt=  0.4375  0.0625  0.4375 (reduced coord)
  -2.01189  -1.17566  -1.17360  -1.17144  -0.88452  -0.58489  -0.57346  -0.56729
  -0.35271  -0.34988  -0.33859  -0.13796  -0.13091  -0.12103  -0.08858  -0.08109
  -0.04826  -0.02096  -0.01710   0.00533   0.14536
 kpt#  35, nband= 21, wtk=  0.01563, kpt=  0.1875  0.1875  0.4375 (reduced coord)
  -2.01192  -1.17572  -1.17212  -1.17210  -0.88581  -0.59335  -0.56951  -0.56700
  -0.35633  -0.34668  -0.33888  -0.13117  -0.10930  -0.09059  -0.08819  -0.07285
  -0.05033  -0.01964  -0.01777  -0.01719   0.12187
 kpt#  36, nband= 21, wtk=  0.03125, kpt=  0.3125  0.1875  0.4375 (reduced coord)
  -2.01189  -1.17567  -1.17297  -1.17207  -0.88462  -0.58541  -0.57112  -0.56576
  -0.36065  -0.35331  -0.34313  -0.13242  -0.11754  -0.10536  -0.08817  -0.07617
  -0.06271  -0.01860  -0.01336  -0.00171   0.13897
 kpt#  37, nband= 21, wtk=  0.03125, kpt=  0.4375  0.1875  0.4375 (reduced coord)
  -2.01188  -1.17563  -1.17358  -1.17205  -0.88377  -0.57960  -0.57149  -0.56571
  -0.36064  -0.35795  -0.34881  -0.13795  -0.12233  -0.11359  -0.08726  -0.07871
  -0.06995  -0.01435  -0.00944   0.00574   0.14946
 kpt#  38, nband= 21, wtk=  0.01563, kpt=  0.3125  0.3125  0.4375 (reduced coord)
  -2.01187  -1.17562  -1.17294  -1.17292  -0.88351  -0.57753  -0.57000  -0.56404
  -0.36886  -0.36201  -0.35275  -0.13362  -0.11362  -0.10789  -0.09745  -0.07484
  -0.07345  -0.00577  -0.00536   0.00100   0.15080
 kpt#  39, nband= 21, wtk=  0.03125, kpt=  0.4375  0.3125  0.4375 (reduced coord)
  -2.01186  -1.17559  -1.17353  -1.17290  -0.88270  -0.57252  -0.56781  -0.56340
  -0.37111  -0.36824  -0.36198  -0.13904  -0.12178  -0.10847  -0.09291  -0.07624
  -0.07475  -0.00344   0.00310   0.00711   0.15846
 kpt#  40, nband= 21, wtk=  0.01563, kpt=  0.4375  0.4375  0.4375 (reduced coord)
  -2.01184  -1.17556  -1.17351  -1.17350  -0.88194  -0.56897  -0.56324  -0.56185
  -0.37694  -0.37553  -0.37119  -0.14359  -0.12255  -0.12126  -0.08023  -0.07512
  -0.07410   0.00561   0.00704   0.01475   0.16640
 Total charge density [el/Bohr^3]
,     Maximum=    1.3314E+00  at reduced coord.    0.5000    0.5000    0.4444
,Next maximum=    1.3240E+00  at reduced coord.    0.5000    0.5156    0.4444
,     Minimum=    9.4631E-05  at reduced coord.    0.0000    0.0000    0.0139
,Next minimum=    1.7838E-04  at reduced coord.    0.0000    0.0000    0.0000

 Components of total free energy (in Hartree) :

    Kinetic energy  =  6.02973659625339E+01
    Hartree energy  =  2.94632651673256E+01
    XC energy       = -2.14053004886633E+01
    Ewald energy    = -1.03451268420385E+02
    PspCore energy  =  1.45346251852999E+01
    Loc. psp. energy= -6.05691393427604E+01
    NL   psp  energy= -5.02336020025305E+01
    >>>>>>>>> Etotal= -1.31364053939180E+02

 Other information on the energy :
    Total energy(eV)= -3.57459769714478E+03 ; Band energy (Ha)=  -1.9534854692E+01
 rms coord change=  5.5545E-03   atom, delta coord (reduced):
     1        0.000000000000      0.000000000000      0.006764564912
     2        0.000000000000      0.000000000000      0.014811198502
     3        0.000000000000      0.000000000000     -0.004531183963
     4        0.000000000000      0.000000000000     -0.004531183963
     5        0.000000000000      0.000000000000     -0.012513395489

 Cartesian components of stress tensor (hartree/bohr^3)
  sigma(1 1)=  6.26442752E-10  sigma(3 2)=  0.00000000E+00
  sigma(2 2)=  6.26442745E-10  sigma(3 1)=  0.00000000E+00
  sigma(3 3)=  3.10877861E-09  sigma(2 1)=  0.00000000E+00

-Cartesian components of stress tensor (GPa)         [Pressure= -4.2775E-05 GPa]
- sigma(1 1)=  1.84305790E-05  sigma(3 2)=  0.00000000E+00
- sigma(2 2)=  1.84305788E-05  sigma(3 1)=  0.00000000E+00
- sigma(3 3)=  9.14634091E-05  sigma(2 1)=  0.00000000E+00

== END DATASET(S) ==============================================================

 -outvars: echo values of variables after computation  --------
     acell    7.5041468350E+00  7.5041468350E+00  7.6779149664E+00 Bohr
       amu    1.37327000E+02  4.78800000E+01  1.59994000E+01
    diemac    1.20000000E+01
   dilatmx    1.20000000E+00
      ecut    6.30000000E+01 Hartree
    ecutsm    3.00000000E+00 Hartree
    etotal   -1.3136405394E+02
     fcart    0.0000000000E+00  0.0000000000E+00 -1.1367705010E-07
              0.0000000000E+00  0.0000000000E+00  2.1457885757E-07
              0.0000000000E+00  0.0000000000E+00 -1.4513913429E-07
              0.0000000000E+00  0.0000000000E+00 -1.4513913429E-07
              0.0000000000E+00  0.0000000000E+00  1.8937646112E-07
    ionmov         2
       ixc        23
       kpt    6.25000000E-02  6.25000000E-02  6.25000000E-02
              1.87500000E-01  6.25000000E-02  6.25000000E-02
              3.12500000E-01  6.25000000E-02  6.25000000E-02
              4.37500000E-01  6.25000000E-02  6.25000000E-02
              1.87500000E-01  1.87500000E-01  6.25000000E-02
              3.12500000E-01  1.87500000E-01  6.25000000E-02
              4.37500000E-01  1.87500000E-01  6.25000000E-02
              3.12500000E-01  3.12500000E-01  6.25000000E-02
              4.37500000E-01  3.12500000E-01  6.25000000E-02
              4.37500000E-01  4.37500000E-01  6.25000000E-02
              6.25000000E-02  6.25000000E-02  1.87500000E-01
              1.87500000E-01  6.25000000E-02  1.87500000E-01
              3.12500000E-01  6.25000000E-02  1.87500000E-01
              4.37500000E-01  6.25000000E-02  1.87500000E-01
              1.87500000E-01  1.87500000E-01  1.87500000E-01
              3.12500000E-01  1.87500000E-01  1.87500000E-01
              4.37500000E-01  1.87500000E-01  1.87500000E-01
              3.12500000E-01  3.12500000E-01  1.87500000E-01
              4.37500000E-01  3.12500000E-01  1.87500000E-01
              4.37500000E-01  4.37500000E-01  1.87500000E-01
              6.25000000E-02  6.25000000E-02  3.12500000E-01
              1.87500000E-01  6.25000000E-02  3.12500000E-01
              3.12500000E-01  6.25000000E-02  3.12500000E-01
              4.37500000E-01  6.25000000E-02  3.12500000E-01
              1.87500000E-01  1.87500000E-01  3.12500000E-01
              3.12500000E-01  1.87500000E-01  3.12500000E-01
              4.37500000E-01  1.87500000E-01  3.12500000E-01
              3.12500000E-01  3.12500000E-01  3.12500000E-01
              4.37500000E-01  3.12500000E-01  3.12500000E-01
              4.37500000E-01  4.37500000E-01  3.12500000E-01
              6.25000000E-02  6.25000000E-02  4.37500000E-01
              1.87500000E-01  6.25000000E-02  4.37500000E-01
              3.12500000E-01  6.25000000E-02  4.37500000E-01
              4.37500000E-01  6.25000000E-02  4.37500000E-01
              1.87500000E-01  1.87500000E-01  4.37500000E-01
              3.12500000E-01  1.87500000E-01  4.37500000E-01
              4.37500000E-01  1.87500000E-01  4.37500000E-01
              3.12500000E-01  3.12500000E-01  4.37500000E-01
              4.37500000E-01  3.12500000E-01  4.37500000E-01
              4.37500000E-01  4.37500000E-01  4.37500000E-01
   kptrlen    5.95088961E+01
    kptopt         1
  kptrlatt    8  0  0   0  8  0   0  0  8
P    mkmem         3
     natom         5
     nband        21
     ngfft        64      64      72
      nkpt        40
     nstep        45
      nsym         8
     ntime        20
    ntypat         3
       occ    2.000000  2.000000  2.000000  2.000000  2.000000  2.000000
              2.000000  2.000000  2.000000  2.000000  2.000000  2.000000
              2.000000  2.000000  2.000000  2.000000  2.000000  2.000000
              2.000000  2.000000  0.000000
   optcell         2
    prtden         0
     prtwf         0
    shiftk    5.00000000E-01  5.00000000E-01  5.00000000E-01
   spgroup        99
    strten    6.2644275184E-10  6.2644274490E-10  3.1087786095E-09
              0.0000000000E+00  0.0000000000E+00  0.0000000000E+00
    symrel    1  0  0   0  1  0   0  0  1       1  0  0   0 -1  0   0  0  1
             -1  0  0   0 -1  0   0  0  1      -1  0  0   0  1  0   0  0  1
              0  1  0   1  0  0   0  0  1       0  1  0  -1  0  0   0  0  1
              0 -1  0  -1  0  0   0  0  1       0 -1  0   1  0  0   0  0  1
    toldff    5.00000000E-07
    tolmxf    1.00000000E-06
     typat    1  2  3  3  3
       wtk      0.01563    0.03125    0.03125    0.03125    0.01563    0.03125
                0.03125    0.01563    0.03125    0.01563    0.01563    0.03125
                0.03125    0.03125    0.01563    0.03125    0.03125    0.01563
                0.03125    0.01563    0.01563    0.03125    0.03125    0.03125
                0.01563    0.03125    0.03125    0.01563    0.03125    0.01563
                0.01563    0.03125    0.03125    0.03125    0.01563    0.03125
                0.03125    0.01563    0.03125    0.01563
    xangst    0.0000000000E+00  0.0000000000E+00  4.3185813635E-02
              1.9855117375E+00  1.9855117375E+00  2.1378630508E+00
              0.0000000000E+00  1.9855117375E+00  1.9965836808E+00
              1.9855117375E+00  0.0000000000E+00  1.9965836808E+00
              1.9855117375E+00  1.9855117375E+00 -7.9749811480E-02
     xcart    0.0000000000E+00  0.0000000000E+00  8.1609360595E-02
              3.7520734175E+00  3.7520734175E+00  4.0399756757E+00
              0.0000000000E+00  3.7520734175E+00  3.7729963581E+00
              3.7520734175E+00  0.0000000000E+00  3.7729963581E+00
              3.7520734175E+00  3.7520734175E+00 -1.5070530285E-01
      xred    0.0000000000E+00  0.0000000000E+00  1.0629104510E-02
              5.0000000000E-01  5.0000000000E-01  5.2618135175E-01
              0.0000000000E+00  5.0000000000E-01  4.9140897947E-01
              5.0000000000E-01  0.0000000000E+00  4.9140897947E-01
              5.0000000000E-01  5.0000000000E-01 -1.9628415202E-02
     znucl     56.00000   22.00000    8.00000

- Timing analysis has been suppressed with timopt=0

 Suggested references for the acknowledgment of ABINIT usage.

 [1] Ab initio pseudopotentials for electronic structure calculations of poly-atomic systems,
 using density-functional theory.
 M. Fuchs, M. Scheffler, Comput. Phys. Commun. 119, 67 (1999).
 Comment : Some pseudopotential generated using the FHI code were used.

 [2] A brief introduction to the ABINIT software package.
 X. Gonze, G.-M. Rignanese, M. Verstraete, J.-M. Beuken, Y. Pouillon, R. Caracas, F. Jollet,
 M. Torrent, G. Zerah, M. Mikami, Ph. Ghosez, M. Veithen, J.-Y. Raty, V. Olevano, F. Bruneval,
 L. Reining, R. Godby, G. Onida, D.R. Hamann, and D.C. Allan.
 Z. Kristallogr. 220, 558-562 (2005).
 Comment : the second generic paper describing the ABINIT project. Note that this paper
 should be cited, especially if you are using the GW part of ABINIT, as the authors
 of this part are not in the list of authors of the first paper.
 Note that it should not redistributed (Copyright by Oldenburg Wissenshaftverlag,
 the licence allows the authors to put it on the Web).

 [3] First-principles computation of material properties : the ABINIT software project.
 X. Gonze, J.-M. Beuken, R. Caracas, F. Detraux, M. Fuchs, G.-M. Rignanese, L. Sindic,
 M. Verstraete, G. Zerah, F. Jollet, M. Torrent, A. Roy, M. Mikami, Ph. Ghosez, J.-Y. Raty, D.C. Allan.
 Comment : the original paper describing the ABINIT project.

 And optionally :

 [4] Fast radix 2, 3, 4 and 5 kernels for Fast Fourier Transformations
 on computers with overlapping multiply-add instructions.
 S. Goedecker, SIAM J. on Scientific Computing 18, 1605 (1997).

 [5] Iterative minimization techniques for ab initio total-energy calculations:
 molecular dynamics and conjugate gradients.
 M.C. Payne, M.P. Teter, D.C. Allan, T.A. Arias and J.D. Joannopoulos, Rev. Mod. Phys. 64, 1045 (1992).
-

 Calculation completed.
.Delivered    2 WARNINGs and  21 COMMENTs to log file.