.Version 5.7.3  of ABINIT

 ABINIT is a project of the Universite Catholique de Louvain,
 Corning Inc. and other collaborators, see ~abinit/doc/developers/contributors.txt .
 Please read ~abinit/doc/users/acknowledgments.html for suggested
 acknowledgments of the ABINIT effort.

.Starting date : Fri 14 Aug 2009.

- input  file    -> perovskite-optcell2-110.in
- output file    -> perovskite-optcell2-110.out
- root for input  files -> perovskite-optcell2-110_i
- root for output files -> perovskite-optcell2-110_o

 DATASET    1 : space group Pm m 2 (# 25); Bravais oP (primitive ortho.)
   intxc =         0  ionmov =         2    iscf =         7 xclevel =         2
  lmnmax =         4   lnmax =         4   mband =        21  mffmem =         1
P  mgfft =        72   mkmem =         5 mpssoang=         4     mpw =     19306
  mqgrid =      3001   natom =         5    nfft =    331776    nkpt =        80
  nloalg =         4  nspden =         1 nspinor =         1  nsppol =         1
    nsym =         4  n1xccc =         0  ntypat =         3  occopt =         1
  Rough estimation (10% accuracy) of disk space for files :

[...]

 DATASET   20 : space group Pm m 2 (# 25); Bravais oP (primitive ortho.)
   intxc =         0  ionmov =         2    iscf =         7 xclevel =         2
  lmnmax =         4   lnmax =         4   mband =        21  mffmem =         1
P  mgfft =        72   mkmem =         5 mpssoang=         4     mpw =     19306
  mqgrid =      3001   natom =         5    nfft =    331776    nkpt =        80
  nloalg =         4  nspden =         1 nspinor =         1  nsppol =         1
    nsym =         4  n1xccc =         0  ntypat =         3  occopt =         1
  Rough estimation (10% accuracy) of disk space for files :

 -outvars: echo values of preprocessed input variables --------
     acell    8.0000000000E+00  8.0000000000E+00  7.3000000000E+00 Bohr
       amu    1.37327000E+02  4.78800000E+01  1.59994000E+01
    diemac    1.20000000E+01
   dilatmx    1.20000000E+00
      ecut    6.30000000E+01 Hartree
    ecutsm    3.00000000E+00 Hartree
    getwfk        -1
    ionmov         2
       ixc        23
    jdtset      1    2    3    4    5    6    7    8    9   10
               11   12   13   14   15   16   17   18   19   20
       kpt    6.25000000E-02  6.25000000E-02  6.25000000E-02
              1.87500000E-01  6.25000000E-02  6.25000000E-02
              3.12500000E-01  6.25000000E-02  6.25000000E-02
              4.37500000E-01  6.25000000E-02  6.25000000E-02
             -4.37500000E-01  6.25000000E-02  6.25000000E-02
             -3.12500000E-01  6.25000000E-02  6.25000000E-02
             -1.87500000E-01  6.25000000E-02  6.25000000E-02
             -6.25000000E-02  6.25000000E-02  6.25000000E-02
              1.87500000E-01  1.87500000E-01  6.25000000E-02
              3.12500000E-01  1.87500000E-01  6.25000000E-02
              4.37500000E-01  1.87500000E-01  6.25000000E-02
             -4.37500000E-01  1.87500000E-01  6.25000000E-02
             -3.12500000E-01  1.87500000E-01  6.25000000E-02
             -1.87500000E-01  1.87500000E-01  6.25000000E-02
              3.12500000E-01  3.12500000E-01  6.25000000E-02
              4.37500000E-01  3.12500000E-01  6.25000000E-02
             -4.37500000E-01  3.12500000E-01  6.25000000E-02
             -3.12500000E-01  3.12500000E-01  6.25000000E-02
              4.37500000E-01  4.37500000E-01  6.25000000E-02
             -4.37500000E-01  4.37500000E-01  6.25000000E-02
              6.25000000E-02  6.25000000E-02  1.87500000E-01
              1.87500000E-01  6.25000000E-02  1.87500000E-01
              3.12500000E-01  6.25000000E-02  1.87500000E-01
              4.37500000E-01  6.25000000E-02  1.87500000E-01
             -4.37500000E-01  6.25000000E-02  1.87500000E-01
             -3.12500000E-01  6.25000000E-02  1.87500000E-01
             -1.87500000E-01  6.25000000E-02  1.87500000E-01
             -6.25000000E-02  6.25000000E-02  1.87500000E-01
              1.87500000E-01  1.87500000E-01  1.87500000E-01
              3.12500000E-01  1.87500000E-01  1.87500000E-01
              4.37500000E-01  1.87500000E-01  1.87500000E-01
             -4.37500000E-01  1.87500000E-01  1.87500000E-01
             -3.12500000E-01  1.87500000E-01  1.87500000E-01
             -1.87500000E-01  1.87500000E-01  1.87500000E-01
              3.12500000E-01  3.12500000E-01  1.87500000E-01
              4.37500000E-01  3.12500000E-01  1.87500000E-01
             -4.37500000E-01  3.12500000E-01  1.87500000E-01
             -3.12500000E-01  3.12500000E-01  1.87500000E-01
              4.37500000E-01  4.37500000E-01  1.87500000E-01
             -4.37500000E-01  4.37500000E-01  1.87500000E-01
              6.25000000E-02  6.25000000E-02  3.12500000E-01
              1.87500000E-01  6.25000000E-02  3.12500000E-01
              3.12500000E-01  6.25000000E-02  3.12500000E-01
              4.37500000E-01  6.25000000E-02  3.12500000E-01
             -4.37500000E-01  6.25000000E-02  3.12500000E-01
             -3.12500000E-01  6.25000000E-02  3.12500000E-01
             -1.87500000E-01  6.25000000E-02  3.12500000E-01
             -6.25000000E-02  6.25000000E-02  3.12500000E-01
              1.87500000E-01  1.87500000E-01  3.12500000E-01
              3.12500000E-01  1.87500000E-01  3.12500000E-01
                       outvar1 : prtvol=0, do not print more k-points.
   kptrlen    5.84000000E+01
    kptopt         1
  kptrlatt    8  0  0   0  8  0   0  0  8
P    mkmem         5
     natom         5
     nband        21
    ndtset        20
     ngfft        72      72      64
      nkpt        80
     nstep        80
      nsym         4
     ntime        60
    ntypat         3
       occ    2.000000  2.000000  2.000000  2.000000  2.000000  2.000000
              2.000000  2.000000  2.000000  2.000000  2.000000  2.000000
              2.000000  2.000000  2.000000  2.000000  2.000000  2.000000
              2.000000  2.000000  0.000000
   optcell         2
    prtden         0
    shiftk    5.00000000E-01  5.00000000E-01  5.00000000E-01
   spgroup        25
    symrel    1  0  0   0  1  0   0  0  1       1  0  0   0  1  0   0  0 -1
              0  1  0   1  0  0   0  0  1       0  1  0   1  0  0   0  0 -1
    toldff    5.00000000E-07
     typat    1  2  3  3  3
       wtk      0.00781    0.01563    0.01563    0.01563    0.01563    0.01563
                0.01563    0.00781    0.00781    0.01563    0.01563    0.01563
                0.01563    0.00781    0.00781    0.01563    0.01563    0.00781
                0.00781    0.00781    0.00781    0.01563    0.01563    0.01563
                0.01563    0.01563    0.01563    0.00781    0.00781    0.01563
                0.01563    0.01563    0.01563    0.00781    0.00781    0.01563
                0.01563    0.00781    0.00781    0.00781    0.00781    0.01563
                0.01563    0.01563    0.01563    0.01563    0.01563    0.00781
                0.00781    0.01563
                outvar1 : prtvol=0, do not print more k-points.
    xangst1   6.7734682700E-03  6.7734682700E-03  0.0000000000E+00
              2.1302557709E+00  2.1302557709E+00  1.9314968114E+00
             -6.7734682700E-03  2.1099353661E+00  1.9314968114E+00
              2.1099353661E+00 -6.7734682700E-03  1.9314968114E+00
              2.1099353661E+00  2.1099353661E+00  0.0000000000E+00
    xangst2   1.3546936540E-02  1.3546936540E-02  0.0000000000E+00
              2.1438027074E+00  2.1438027074E+00  1.9314968114E+00
             -1.3546936540E-02  2.1031618978E+00  1.9314968114E+00
              2.1031618978E+00 -1.3546936540E-02  1.9314968114E+00
              2.1031618978E+00  2.1031618978E+00  0.0000000000E+00
    xangst3   2.0320404810E-02  2.0320404810E-02  0.0000000000E+00
              2.1573496440E+00  2.1573496440E+00  1.9314968114E+00
             -2.0320404810E-02  2.0963884296E+00  1.9314968114E+00
              2.0963884296E+00 -2.0320404810E-02  1.9314968114E+00
              2.0963884296E+00  2.0963884296E+00  0.0000000000E+00
    xangst4   2.7093873080E-02  2.7093873080E-02  0.0000000000E+00
              2.1708965805E+00  2.1708965805E+00  1.9314968114E+00
             -2.7093873080E-02  2.0896149613E+00  1.9314968114E+00
              2.0896149613E+00 -2.7093873080E-02  1.9314968114E+00
              2.0896149613E+00  2.0896149613E+00  0.0000000000E+00
    xangst5   3.3867341350E-02  3.3867341350E-02  0.0000000000E+00
              2.1844435171E+00  2.1844435171E+00  1.9314968114E+00
             -3.3867341350E-02  2.0828414930E+00  1.9314968114E+00
              2.0828414930E+00 -3.3867341350E-02  1.9314968114E+00
              2.0828414930E+00  2.0828414930E+00  0.0000000000E+00
    xangst6   4.0640809620E-02  4.0640809620E-02  0.0000000000E+00
              2.1979904536E+00  2.1979904536E+00  1.9314968114E+00
             -4.0640809620E-02  2.0760680247E+00  1.9314968114E+00
              2.0760680247E+00 -4.0640809620E-02  1.9314968114E+00
              2.0760680247E+00  2.0760680247E+00  0.0000000000E+00
    xangst7   4.7414277890E-02  4.7414277890E-02  0.0000000000E+00
              2.2115373901E+00  2.2115373901E+00  1.9314968114E+00
             -4.7414277890E-02  2.0692945565E+00  1.9314968114E+00
              2.0692945565E+00 -4.7414277890E-02  1.9314968114E+00
              2.0692945565E+00  2.0692945565E+00  0.0000000000E+00
    xangst8   5.4187746160E-02  5.4187746160E-02  0.0000000000E+00
              2.2250843267E+00  2.2250843267E+00  1.9314968114E+00
             -5.4187746160E-02  2.0625210882E+00  1.9314968114E+00
              2.0625210882E+00 -5.4187746160E-02  1.9314968114E+00
              2.0625210882E+00  2.0625210882E+00  0.0000000000E+00
    xangst9   6.0961214430E-02  6.0961214430E-02  0.0000000000E+00
              2.2386312632E+00  2.2386312632E+00  1.9314968114E+00
             -6.0961214430E-02  2.0557476199E+00  1.9314968114E+00
              2.0557476199E+00 -6.0961214430E-02  1.9314968114E+00
              2.0557476199E+00  2.0557476199E+00  0.0000000000E+00
    xangst10  6.7734682700E-02  6.7734682700E-02  0.0000000000E+00
              2.2521781998E+00  2.2521781998E+00  1.9314968114E+00
             -6.7734682700E-02  2.0489741517E+00  1.9314968114E+00
              2.0489741517E+00 -6.7734682700E-02  1.9314968114E+00
              2.0489741517E+00  2.0489741517E+00  0.0000000000E+00
    xangst11  7.4508150969E-02  7.4508150969E-02  0.0000000000E+00
              2.2657251363E+00  2.2657251363E+00  1.9314968114E+00
             -7.4508150969E-02  2.0422006834E+00  1.9314968114E+00
              2.0422006834E+00 -7.4508150969E-02  1.9314968114E+00
              2.0422006834E+00  2.0422006834E+00  0.0000000000E+00
    xangst12  8.1281619239E-02  8.1281619239E-02  0.0000000000E+00
              2.2792720728E+00  2.2792720728E+00  1.9314968114E+00
             -8.1281619239E-02  2.0354272151E+00  1.9314968114E+00
              2.0354272151E+00 -8.1281619239E-02  1.9314968114E+00
              2.0354272151E+00  2.0354272151E+00  0.0000000000E+00
    xangst13  8.8055087509E-02  8.8055087509E-02  0.0000000000E+00
[...]
    xangst17  1.5698870941E-01  1.5698870941E-01  0.0000000000E+00
              2.3150589280E+00  2.3150589280E+00  1.9085235480E+00
             -1.2992645871E-01  2.1063608100E+00  1.9085235480E+00
              2.1063608100E+00 -1.2992645871E-01  1.9085235480E+00
              1.9720202897E+00  1.9720202897E+00  0.0000000000E+00
    xangst18  1.6989603022E-01  1.6989603022E-01  0.0000000000E+00
              2.3387623892E+00  2.3387623892E+00  1.8985914374E+00
             -1.3877509877E-01  2.1231669483E+00  1.8985914374E+00
              2.1231669483E+00 -1.3877509877E-01  1.8985914374E+00
              1.9756837912E+00  1.9756837912E+00  0.0000000000E+00
    xangst19  1.8353458748E-01  1.8353458748E-01  0.0000000000E+00
              2.3633488564E+00  2.3633488564E+00  1.8885088295E+00
             -1.4808349498E-01  2.1398286001E+00  1.8885088295E+00
              2.1398286001E+00 -1.4808349498E-01  1.8885088295E+00
              1.9808007373E+00  1.9808007373E+00  0.0000000000E+00
    xangst20  1.9812312909E-01  1.9812312909E-01  0.0000000000E+00
              2.3888441689E+00  2.3888441689E+00  1.8784446030E+00
             -1.5777358174E-01  2.1560162940E+00  1.8784446030E+00
              2.1560162940E+00 -1.5777358174E-01  1.8784446030E+00
              1.9875354811E+00  1.9875354811E+00  0.0000000000E+00
     xcart1   5.7115950572E-03  5.7115950572E-03  0.0000000000E+00
              3.7936714696E+00  3.7936714696E+00  3.7657459363E+00
             -1.8312405475E-02  3.7603450647E+00  3.7657459363E+00
              3.7603450647E+00 -1.8312405475E-02  3.7657459363E+00
              3.7604505839E+00  3.7604505839E+00  0.0000000000E+00
     xcart2   1.1895505717E-02  1.1895505717E-02  0.0000000000E+00
              3.8232869421E+00  3.8232869421E+00  3.7643997442E+00
             -3.6227590684E-02  3.7563516843E+00  3.7643997442E+00
              3.7563516843E+00 -3.6227590684E-02  3.7643997442E+00
              3.7565526837E+00  3.7565526837E+00  0.0000000000E+00
     xcart3   1.9183364523E-02  1.9183364523E-02  0.0000000000E+00
              3.8548793385E+00  3.8548793385E+00  3.7620816464E+00
             -5.3670967218E-02  3.7541895318E+00  3.7620816464E+00
              3.7541895318E+00 -5.3670967218E-02  3.7620816464E+00
              3.7540652631E+00  3.7540652631E+00  0.0000000000E+00
     xcart4   2.8258261237E-02  2.8258261237E-02  0.0000000000E+00
              3.8882037830E+00  3.8882037830E+00  3.7586988738E+00
             -7.0519880882E-02  3.7538577810E+00  3.7586988738E+00
              3.7538577810E+00 -7.0519880882E-02  3.7586988738E+00
              3.7524563869E+00  3.7524563869E+00  0.0000000000E+00
     xcart5   3.9697659266E-02  3.9697659266E-02  0.0000000000E+00
              3.9229093667E+00  3.9229093667E+00  3.7541582570E+00
             -8.6589633848E-02  3.7553896894E+00  3.7541582570E+00
              3.7553896894E+00 -8.6589633848E-02  3.7541582570E+00
              3.7510966748E+00  3.7510966748E+00  0.0000000000E+00
     xcart6   5.3862399932E-02  5.3862399932E-02  0.0000000000E+00
              3.9585443855E+00  3.9585443855E+00  3.7483862419E+00
             -1.0169949999E-01  3.7589500943E+00  3.7483862419E+00
              3.7589500943E+00 -1.0169949999E-01  3.7483862419E+00
              3.7493456011E+00  3.7493456011E+00  0.0000000000E+00
     xcart7   7.1013448129E-02  7.1013448129E-02  0.0000000000E+00
              3.9944446348E+00  3.9944446348E+00  3.7413489133E+00
             -1.1583991363E-01  3.7649280339E+00  3.7413489133E+00
              3.7649280339E+00 -1.1583991363E-01  3.7413489133E+00
              3.7466111501E+00  3.7466111501E+00  0.0000000000E+00
     xcart8   9.0823012297E-02  9.0823012297E-02  0.0000000000E+00
              4.0301687364E+00  4.0301687364E+00  3.7330626592E+00
             -1.2906635096E-01  3.7737330971E+00  3.7330626592E+00
              3.7737330971E+00 -1.2906635096E-01  3.7330626592E+00
              3.7427295433E+00  3.7427295433E+00  0.0000000000E+00
     xcart9   1.1264570669E-01  1.1264570669E-01  0.0000000000E+00
              4.0655653250E+00  4.0655653250E+00  3.7235993319E+00
             -1.4157842751E-01  3.7855506219E+00  3.7235993319E+00
              3.7855506219E+00 -1.4157842751E-01  3.7235993319E+00
              3.7380727641E+00  3.7380727641E+00  0.0000000000E+00
     xcart10  1.3555487240E-01  1.3555487240E-01  0.0000000000E+00
              4.1008695581E+00  4.1008695581E+00  3.7129344240E+00
             -1.5351338635E-01  3.8007648560E+00  3.7129344240E+00
              3.8007648560E+00 -1.5351338635E-01  3.7129344240E+00
              3.7328674095E+00  3.7328674095E+00  0.0000000000E+00
     xcart11  1.5870959598E-01  1.5870959598E-01  0.0000000000E+00
              4.1365876591E+00  4.1365876591E+00  3.7010533393E+00
             -1.6513580177E-01  3.8193060124E+00  3.7010533393E+00
              3.8193060124E+00 -1.6513580177E-01  3.7010533393E+00
              3.7277620402E+00  3.7277620402E+00  0.0000000000E+00
     xcart12  1.8176553560E-01  1.8176553560E-01  0.0000000000E+00
              4.1731079743E+00  4.1731079743E+00  3.6879937910E+00
             -1.7681783304E-01  3.8407785512E+00  3.6879937910E+00
              3.8407785512E+00 -1.7681783304E-01  3.6879937910E+00
              3.7234792249E+00  3.7234792249E+00  0.0000000000E+00
     xcart13  2.0473302710E-01  2.0473302710E-01  0.0000000000E+00
              4.2107168685E+00  4.2107168685E+00  3.6738351072E+00
             -1.8892236055E-01  3.8646216873E+00  3.6738351072E+00
              3.8646216873E+00 -1.8892236055E-01  3.6738351072E+00
              3.7206753823E+00  3.7206753823E+00  0.0000000000E+00
     xcart14  2.2764550935E-01  2.2764550935E-01  0.0000000000E+00
              4.2496126833E+00  4.2496126833E+00  3.6585993371E+00
             -2.0168495439E-01  3.8906021893E+00  3.6585993371E+00
              3.8906021893E+00 -2.0168495439E-01  3.6585993371E+00
              3.7195681919E+00  3.7195681919E+00  0.0000000000E+00
     xcart15  2.5040570160E-01  2.5040570160E-01  0.0000000000E+00
              4.2898808584E+00  4.2898808584E+00  3.6422180775E+00
             -2.1524955760E-01  3.9189102028E+00  3.6422180775E+00
              3.9189102028E+00 -2.1524955760E-01  3.6422180775E+00
              3.7199533039E+00  3.7199533039E+00  0.0000000000E+00
     xcart16  2.7330614867E-01  2.7330614867E-01  0.0000000000E+00
              4.3316142394E+00  4.3316142394E+00  3.6248269347E+00
             -2.2984225964E-01  3.9490198263E+00  3.6248269347E+00
              3.9490198263E+00 -2.2984225964E-01  3.6248269347E+00
              3.7222285915E+00  3.7222285915E+00  0.0000000000E+00
     xcart17  2.9666566674E-01  2.9666566674E-01  0.0000000000E+00
              4.3748273555E+00  4.3748273555E+00  3.6065868240E+00
             -2.4552542437E-01  3.9804450680E+00  3.6065868240E+00
              3.9804450680E+00 -2.4552542437E-01  3.6065868240E+00
              3.7265782760E+00  3.7265782760E+00  0.0000000000E+00
     xcart18  3.2105696817E-01  3.2105696817E-01  0.0000000000E+00
              4.4196204055E+00  4.4196204055E+00  3.5878178550E+00
             -2.6224693074E-01  4.0122040667E+00  3.5878178550E+00
              4.0122040667E+00 -2.6224693074E-01  3.5878178550E+00
              3.7335012905E+00  3.7335012905E+00  0.0000000000E+00
     xcart19  3.4683010625E-01  3.4683010625E-01  0.0000000000E+00
              4.4660820951E+00  4.4660820951E+00  3.5687644873E+00
             -2.7983725031E-01  4.0436900256E+00  3.5687644873E+00
              4.0436900256E+00 -2.7983725031E-01  3.5687644873E+00
              3.7431709172E+00  3.7431709172E+00  0.0000000000E+00
     xcart20  3.7439845457E-01  3.7439845457E-01  0.0000000000E+00
              4.5142612533E+00  4.5142612533E+00  3.5497458555E+00
             -2.9814886049E-01  4.0742803338E+00  3.5497458555E+00
              4.0742803338E+00 -2.9814886049E-01  3.5497458555E+00
              3.7558977387E+00  3.7558977387E+00  0.0000000000E+00
      xred1   7.5805113531E-04  7.5805113531E-04  0.0000000000E+00
              5.0350155005E-01  5.0350155005E-01  5.0000000000E-01
             -2.4515044256E-03  4.9909947707E-01  5.0000000000E-01
              4.9909947707E-01 -2.4515044256E-03  5.0000000000E-01
              4.9909242618E-01  4.9909242618E-01  0.0000000000E+00
      xred2   1.5773939739E-03  1.5773939739E-03  0.0000000000E+00
              5.0698389177E-01  5.0698389177E-01  5.0000000000E-01
             -4.8906563442E-03  4.9819472152E-01  5.0000000000E-01
              4.9819472152E-01 -4.8906563442E-03  5.0000000000E-01
              4.9813464908E-01  4.9813464908E-01  0.0000000000E+00
      xred3   2.5400251218E-03  2.5400251218E-03  0.0000000000E+00
              5.1041569636E-01  5.1041569636E-01  5.0000000000E-01
             -7.3082760179E-03  4.9728541775E-01  5.0000000000E-01
              4.9728541775E-01 -7.3082760179E-03  5.0000000000E-01
              4.9706713678E-01  4.9706713678E-01  0.0000000000E+00
      xred4   3.7338297004E-03  3.7338297004E-03  0.0000000000E+00
              5.1375739802E-01  5.1375739802E-01  5.0000000000E-01
             -9.6893073371E-03  4.9637730036E-01  5.0000000000E-01
              4.9637730036E-01 -9.6893073371E-03  5.0000000000E-01
              4.9582077925E-01  4.9582077925E-01  0.0000000000E+00
      xred5   5.2314051613E-03  5.2314051613E-03  0.0000000000E+00
              5.1696570245E-01  5.1696570245E-01  5.0000000000E-01
             -1.2009347744E-02  4.9548822032E-01  5.0000000000E-01
              4.9548822032E-01 -1.2009347744E-02  5.0000000000E-01
              4.9432401980E-01  4.9432401980E-01  0.0000000000E+00
      xred6   7.0753637629E-03  7.0753637629E-03  0.0000000000E+00
              5.1999431020E-01  5.1999431020E-01  5.0000000000E-01
             -1.4244155786E-02  4.9466051969E-01  5.0000000000E-01
              4.9466051969E-01 -1.4244155786E-02  5.0000000000E-01
              4.9251396213E-01  4.9251396213E-01  0.0000000000E+00
      xred7   9.2940153346E-03  9.2940153346E-03  0.0000000000E+00
              5.2278027144E-01  5.2278027144E-01  5.0000000000E-01
             -1.6389722743E-02  4.9397082661E-01  5.0000000000E-01
              4.9397082661E-01 -1.6389722743E-02  5.0000000000E-01
              4.9034460935E-01  4.9034460935E-01  0.0000000000E+00
      xred8   1.1837845404E-02  1.1837845404E-02  0.0000000000E+00
              5.2529103855E-01  5.2529103855E-01  5.0000000000E-01
             -1.8451249588E-02  4.9349606917E-01  5.0000000000E-01
              4.9349606917E-01 -1.8451249588E-02  5.0000000000E-01
              4.8782629647E-01  4.8782629647E-01  0.0000000000E+00
      xred9   1.4616333772E-02  1.4616333772E-02  0.0000000000E+00
              5.2752707143E-01  5.2752707143E-01  5.0000000000E-01
             -2.0451821570E-02  4.9327511339E-01  5.0000000000E-01
              4.9327511339E-01 -2.0451821570E-02  5.0000000000E-01
              4.8503330297E-01  4.8503330297E-01  0.0000000000E+00
      xred10  1.7503684460E-02  1.7503684460E-02  0.0000000000E+00
              5.2952966930E-01  5.2952966930E-01  5.0000000000E-01
             -2.2403396236E-02  4.9335908922E-01  5.0000000000E-01
              4.9335908922E-01 -2.2403396236E-02  5.0000000000E-01
              4.8201095326E-01  4.8201095326E-01  0.0000000000E+00
      xred11  2.0387061319E-02  2.0387061319E-02  0.0000000000E+00
              5.3136589338E-01  5.3136589338E-01  5.0000000000E-01
             -2.4330317416E-02  4.9372721616E-01  5.0000000000E-01
              4.9372721616E-01 -2.4330317416E-02  5.0000000000E-01
              4.7885014656E-01  4.7885014656E-01  0.0000000000E+00
      xred12  2.3219300395E-02  2.3219300395E-02  0.0000000000E+00
              5.3308591928E-01  5.3308591928E-01  5.0000000000E-01
             -2.6267789302E-02  4.9431363898E-01  5.0000000000E-01
              4.9431363898E-01 -2.6267789302E-02  5.0000000000E-01
              4.7564893065E-01  4.7564893065E-01  0.0000000000E+00
      xred13  2.5999331258E-02  2.5999331258E-02  0.0000000000E+00
              5.3472477912E-01  5.3472477912E-01  5.0000000000E-01
             -2.8250165185E-02  4.9503232414E-01  5.0000000000E-01
              4.9503232414E-01 -2.8250165185E-02  5.0000000000E-01
              4.7249373067E-01  4.7249373067E-01  0.0000000000E+00
      xred14  2.8729230157E-02  2.8729230157E-02  0.0000000000E+00
              5.3630796937E-01  5.3630796937E-01  5.0000000000E-01
             -3.0294188526E-02  4.9584148868E-01  5.0000000000E-01
              4.9584148868E-01 -3.0294188526E-02  5.0000000000E-01
              4.6941550033E-01  4.6941550033E-01  0.0000000000E+00
      xred15  3.1395158470E-02  3.1395158470E-02  0.0000000000E+00
              5.3785312596E-01  5.3785312596E-01  5.0000000000E-01
             -3.2400769129E-02  4.9675526318E-01  5.0000000000E-01
              4.9675526318E-01 -3.2400769129E-02  5.0000000000E-01
              4.6639722151E-01  4.6639722151E-01  0.0000000000E+00
      xred16  3.4031886935E-02  3.4031886935E-02  0.0000000000E+00
              5.3936951934E-01  5.3936951934E-01  5.0000000000E-01
             -3.4589315704E-02  4.9769865684E-01  5.0000000000E-01
              4.9769865684E-01 -3.4589315704E-02  5.0000000000E-01
              4.6348925258E-01  4.6348925258E-01  0.0000000000E+00
      xred17  3.6676735542E-02  3.6676735542E-02  0.0000000000E+00
              5.4085930375E-01  5.4085930375E-01  5.0000000000E-01
             -3.6863546058E-02  4.9861114748E-01  5.0000000000E-01
              4.9861114748E-01 -3.6863546058E-02  5.0000000000E-01
              4.6071635929E-01  4.6071635929E-01  0.0000000000E+00
      xred18  3.9396277997E-02  3.9396277997E-02  0.0000000000E+00
              5.4232304979E-01  5.4232304979E-01  5.0000000000E-01
             -3.9227376419E-02  4.9937734497E-01  5.0000000000E-01
              4.9937734497E-01 -3.9227376419E-02  5.0000000000E-01
              4.5813070366E-01  4.5813070366E-01  0.0000000000E+00
      xred19  4.2227911237E-02  4.2227911237E-02  0.0000000000E+00
              5.4376282477E-01  5.4376282477E-01  5.0000000000E-01
             -4.1670625245E-02  4.9993430547E-01  5.0000000000E-01
              4.9993430547E-01 -4.1670625245E-02  5.0000000000E-01
              4.5574558376E-01  4.5574558376E-01  0.0000000000E+00
      xred20  4.5214696663E-02  4.5214696663E-02  0.0000000000E+00
              5.4517039463E-01  5.4517039463E-01  5.0000000000E-01
             -4.4191950292E-02  5.0022118075E-01  5.0000000000E-01
              5.0022118075E-01 -4.4191950292E-02  5.0000000000E-01
              4.5358567825E-01  4.5358567825E-01  0.0000000000E+00
     znucl     56.00000   22.00000    8.00000

- Timing analysis has been suppressed with timopt=0

 Suggested references for the acknowledgment of ABINIT usage.

 [1] Ab initio pseudopotentials for electronic structure calculations of poly-atomic systems,
 using density-functional theory.
 M. Fuchs, M. Scheffler, Comput. Phys. Commun. 119, 67 (1999).
 Comment : Some pseudopotential generated using the FHI code were used.

 [2] A brief introduction to the ABINIT software package.
 X. Gonze, G.-M. Rignanese, M. Verstraete, J.-M. Beuken, Y. Pouillon, R. Caracas, F. Jollet,
 M. Torrent, G. Zerah, M. Mikami, Ph. Ghosez, M. Veithen, J.-Y. Raty, V. Olevano, F. Bruneval,
 L. Reining, R. Godby, G. Onida, D.R. Hamann, and D.C. Allan.
 Z. Kristallogr. 220, 558-562 (2005).
 Comment : the second generic paper describing the ABINIT project. Note that this paper
 should be cited, especially if you are using the GW part of ABINIT, as the authors
 of this part are not in the list of authors of the first paper.
 Note that it should not redistributed (Copyright by Oldenburg Wissenshaftverlag,
 the licence allows the authors to put it on the Web).

 [3] First-principles computation of material properties : the ABINIT software project.
 X. Gonze, J.-M. Beuken, R. Caracas, F. Detraux, M. Fuchs, G.-M. Rignanese, L. Sindic,
 M. Verstraete, G. Zerah, F. Jollet, M. Torrent, A. Roy, M. Mikami, Ph. Ghosez, J.-Y. Raty, D.C. Allan.
 Comment : the original paper describing the ABINIT project.

 And optionally :

 [4] Fast radix 2, 3, 4 and 5 kernels for Fast Fourier Transformations
 on computers with overlapping multiply-add instructions.
 S. Goedecker, SIAM J. on Scientific Computing 18, 1605 (1997).

 [5] Iterative minimization techniques for ab initio total-energy calculations:
 molecular dynamics and conjugate gradients.
 M.C. Payne, M.P. Teter, D.C. Allan, T.A. Arias and J.D. Joannopoulos, Rev. Mod. Phys. 64, 1045 (1992).
-

 Calculation completed.
.Delivered    0 WARNINGs and 617 COMMENTs to log file.