.Version 5.7.3  of ABINIT

 ABINIT is a project of the Universite Catholique de Louvain,
 Corning Inc. and other collaborators, see ~abinit/doc/developers/contributors.txt .
 Please read ~abinit/doc/users/acknowledgments.html for suggested
 acknowledgments of the ABINIT effort.

.Starting date : Fri 31 Jul 2009.

- input  file    -> perovskite-a0.in
- output file    -> perovskite-a0.out
- root for input  files -> perovskite-a0_i
- root for output files -> perovskite-a0_o

 Symmetries : space group Pm -3 m (#221); Bravais cP (primitive cubic)
   intxc =         0  ionmov =         2    iscf =         7 xclevel =         2
  lmnmax =         4   lnmax =         4   mband =        21  mffmem =         1
P  mgfft =        72   mkmem =         2 mpssoang=         4     mpw =     18313
  mqgrid =      3001   natom =         5    nfft =    373248    nkpt =        20
  nloalg =         4  nspden =         1 nspinor =         1  nsppol =         1
    nsym =        48  n1xccc =         0  ntypat =         3  occopt =         1
  Rough estimation (10% accuracy) of disk space for files :

 -outvars: echo values of preprocessed input variables --------
     acell    7.6224690964E+00  7.6224690964E+00  7.6224690964E+00 Bohr
       amu    1.37327000E+02  4.78800000E+01  1.59994000E+01
    diemac    1.20000000E+01
   dilatmx    1.20000000E+00
      ecut    6.30000000E+01 Hartree
    ecutsm    3.00000000E+00 Hartree
    ionmov         2
       ixc        23
       kpt    6.25000000E-02  6.25000000E-02  6.25000000E-02
              1.87500000E-01  6.25000000E-02  6.25000000E-02
              3.12500000E-01  6.25000000E-02  6.25000000E-02
              4.37500000E-01  6.25000000E-02  6.25000000E-02
              1.87500000E-01  1.87500000E-01  6.25000000E-02
              3.12500000E-01  1.87500000E-01  6.25000000E-02
              4.37500000E-01  1.87500000E-01  6.25000000E-02
              3.12500000E-01  3.12500000E-01  6.25000000E-02
              4.37500000E-01  3.12500000E-01  6.25000000E-02
              4.37500000E-01  4.37500000E-01  6.25000000E-02
              1.87500000E-01  1.87500000E-01  1.87500000E-01
              3.12500000E-01  1.87500000E-01  1.87500000E-01
              4.37500000E-01  1.87500000E-01  1.87500000E-01
              3.12500000E-01  3.12500000E-01  1.87500000E-01
              4.37500000E-01  3.12500000E-01  1.87500000E-01
              4.37500000E-01  4.37500000E-01  1.87500000E-01
              3.12500000E-01  3.12500000E-01  3.12500000E-01
              4.37500000E-01  3.12500000E-01  3.12500000E-01
              4.37500000E-01  4.37500000E-01  3.12500000E-01
              4.37500000E-01  4.37500000E-01  4.37500000E-01
   kptrlen    6.09797528E+01
    kptopt         1
  kptrlatt    8  0  0   0  8  0   0  0  8
P    mkmem         2
     natom         5
     nband        21
     ngfft        72      72      72
      nkpt        20
     nstep        35
      nsym        48
     ntime        30
    ntypat         3
       occ    2.000000  2.000000  2.000000  2.000000  2.000000  2.000000
              2.000000  2.000000  2.000000  2.000000  2.000000  2.000000
              2.000000  2.000000  2.000000  2.000000  2.000000  2.000000
              2.000000  2.000000  0.000000
   optcell         2
    prtden         0
     prtwf         0
    shiftk    5.00000000E-01  5.00000000E-01  5.00000000E-01
   spgroup       221
    symrel    1  0  0   0  1  0   0  0  1      -1  0  0   0 -1  0   0  0 -1
             -1  0  0   0  1  0   0  0 -1       1  0  0   0 -1  0   0  0  1
             -1  0  0   0 -1  0   0  0  1       1  0  0   0  1  0   0  0 -1
              1  0  0   0 -1  0   0  0 -1      -1  0  0   0  1  0   0  0  1
              0  1  0   1  0  0   0  0  1       0 -1  0  -1  0  0   0  0 -1
              0 -1  0   1  0  0   0  0 -1       0  1  0  -1  0  0   0  0  1
              0 -1  0  -1  0  0   0  0  1       0  1  0   1  0  0   0  0 -1
              0  1  0  -1  0  0   0  0 -1       0 -1  0   1  0  0   0  0  1
              0  0  1   1  0  0   0  1  0       0  0 -1  -1  0  0   0 -1  0
              0  0 -1   1  0  0   0 -1  0       0  0  1  -1  0  0   0  1  0
              0  0 -1  -1  0  0   0  1  0       0  0  1   1  0  0   0 -1  0
              0  0  1  -1  0  0   0 -1  0       0  0 -1   1  0  0   0  1  0
              1  0  0   0  0  1   0  1  0      -1  0  0   0  0 -1   0 -1  0
             -1  0  0   0  0  1   0 -1  0       1  0  0   0  0 -1   0  1  0
             -1  0  0   0  0 -1   0  1  0       1  0  0   0  0  1   0 -1  0
              1  0  0   0  0 -1   0 -1  0      -1  0  0   0  0  1   0  1  0
              0  1  0   0  0  1   1  0  0       0 -1  0   0  0 -1  -1  0  0
              0 -1  0   0  0  1  -1  0  0       0  1  0   0  0 -1   1  0  0
              0 -1  0   0  0 -1   1  0  0       0  1  0   0  0  1  -1  0  0
              0  1  0   0  0 -1  -1  0  0       0 -1  0   0  0  1   1  0  0
              0  0  1   0  1  0   1  0  0       0  0 -1   0 -1  0  -1  0  0
              0  0 -1   0  1  0  -1  0  0       0  0  1   0 -1  0   1  0  0
              0  0 -1   0 -1  0   1  0  0       0  0  1   0  1  0  -1  0  0
              0  0  1   0 -1  0  -1  0  0       0  0 -1   0  1  0   1  0  0
    toldfe    1.00000000E-10 Hartree
    tolmxf    1.00000000E-06
     typat    1  2  3  3  3
       wtk      0.01563    0.04688    0.04688    0.04688    0.04688    0.09375
                0.09375    0.04688    0.09375    0.04688    0.01563    0.04688
                0.04688    0.04688    0.09375    0.04688    0.01563    0.04688
                0.04688    0.01563
    xangst    0.0000000000E+00  0.0000000000E+00  0.0000000000E+00
              2.0168184595E+00  2.0168184595E+00  2.0168184595E+00
              0.0000000000E+00  2.0168184595E+00  2.0168184595E+00
              2.0168184595E+00  0.0000000000E+00  2.0168184595E+00
              2.0168184595E+00  2.0168184595E+00  0.0000000000E+00
     xcart    0.0000000000E+00  0.0000000000E+00  0.0000000000E+00
              3.8112345482E+00  3.8112345482E+00  3.8112345482E+00
              0.0000000000E+00  3.8112345482E+00  3.8112345482E+00
              3.8112345482E+00  0.0000000000E+00  3.8112345482E+00
              3.8112345482E+00  3.8112345482E+00  0.0000000000E+00
      xred    0.0000000000E+00  0.0000000000E+00  0.0000000000E+00
              5.0000000000E-01  5.0000000000E-01  5.0000000000E-01
              0.0000000000E+00  5.0000000000E-01  5.0000000000E-01
              5.0000000000E-01  0.0000000000E+00  5.0000000000E-01
              5.0000000000E-01  5.0000000000E-01  0.0000000000E+00
     znucl     56.00000   22.00000    8.00000

 chkinp: Checking input parameters for consistency.

== DATASET  1 ==================================================================

 Real(R)+Recip(G) space primitive vectors, cartesian coordinates (Bohr,Bohr^-1):
 R(1)=  7.6224691  0.0000000  0.0000000  G(1)=  0.1311911  0.0000000  0.0000000
 R(2)=  0.0000000  7.6224691  0.0000000  G(2)=  0.0000000  0.1311911  0.0000000
 R(3)=  0.0000000  0.0000000  7.6224691  G(3)=  0.0000000  0.0000000  0.1311911
 Unit cell volume ucvol=  4.4288097E+02 bohr^3
 Angles (23,13,12)=  9.00000000E+01  9.00000000E+01  9.00000000E+01 degrees

 getcut: wavevector=  0.0000  0.0000  0.0000  ngfft=  72  72  72
         ecut(hartree)=     90.720   => boxcut(ratio)=   2.20303

 getcut : COMMENT -
  Note that boxcut > 2.2 ; recall that boxcut=Gcut(box)/Gcut(sphere) = 2
  is sufficient for exact treatment of convolution.
  Such a large boxcut is a waste : you could raise ecut
  e.g. ecut=  110.073660 Hartrees makes boxcut=2

--- Pseudopotential description ------------------------------------------------
- pspini: atom type   1  psp file is ba.wcgga.fhi
- pspatm: opening atomic psp file    ba.wcgga.fhi
 OPIUM generated Ba potential
  56.00000  10.00000     90731                znucl, zion, pspdat
    6   23    3    3      1179   0.00000      pspcod,pspxc,lmax,lloc,mmax,r2well
    0.00000000000000    0.00000000000000    0.00000000000000   rchrg,fchrg,qchrg
  1.013085          amesh (Hamman grid)
 pspatm: epsatm=   82.20741810
         --- l  ekb(1:nproj) -->
             0   -1.025000
             1   -0.812020
             2   -5.512288
 pspatm: atomic psp has been read  and splines computed

- pspini: atom type   2  psp file is ti.wcgga.fhi
- pspatm: opening atomic psp file    ti.wcgga.fhi
 OPIUM generated Ti potential
  22.00000  12.00000     90731                znucl, zion, pspdat
    6   23    3    3      1156   0.00000      pspcod,pspxc,lmax,lloc,mmax,r2well
    0.00000000000000    0.00000000000000    0.00000000000000   rchrg,fchrg,qchrg
  1.013085          amesh (Hamman grid)
 pspatm: epsatm=   51.36980524
         --- l  ekb(1:nproj) -->
             0   -5.227900
             1   -6.911342
             2   -8.639772
 pspatm: atomic psp has been read  and splines computed

- pspini: atom type   3  psp file is o.wcgga.fhi
- pspatm: opening atomic psp file    o.wcgga.fhi
 OPIUM generated O potential
   8.00000   6.00000     90731                znucl, zion, pspdat
    6   23    1    0      1130   0.00000      pspcod,pspxc,lmax,lloc,mmax,r2well
    0.00000000000000    0.00000000000000    0.00000000000000   rchrg,fchrg,qchrg
  1.013085          amesh (Hamman grid)
 pspatm: epsatm=    7.84256607
         --- l  ekb(1:nproj) -->
             1   -3.641985
 pspatm: atomic psp has been read  and splines computed

   6.28419686E+03                                ecore*ucvol(ha*bohr**3)

P newkpt: treating     21 bands with npw=   18283 for ikpt=   1 by node    0
P newkpt: treating     21 bands with npw=   18286 for ikpt=   2 by node    0
P newkpt: treating     21 bands with npw=   18294 for ikpt=   3 by node    1
P newkpt: treating     21 bands with npw=   18300 for ikpt=   4 by node    1
P newkpt: treating     21 bands with npw=   18285 for ikpt=   5 by node    2
P newkpt: treating     21 bands with npw=   18282 for ikpt=   6 by node    2
P newkpt: treating     21 bands with npw=   18283 for ikpt=   7 by node    3
P newkpt: treating     21 bands with npw=   18278 for ikpt=   8 by node    3
P newkpt: treating     21 bands with npw=   18266 for ikpt=   9 by node    4
P newkpt: treating     21 bands with npw=   18301 for ikpt=  10 by node    4
P newkpt: treating     21 bands with npw=   18253 for ikpt=  11 by node    5
P newkpt: treating     21 bands with npw=   18268 for ikpt=  12 by node    5
P newkpt: treating     21 bands with npw=   18313 for ikpt=  13 by node    6
P newkpt: treating     21 bands with npw=   18269 for ikpt=  14 by node    6
P newkpt: treating     21 bands with npw=   18284 for ikpt=  15 by node    7
P newkpt: treating     21 bands with npw=   18273 for ikpt=  16 by node    7
P newkpt: treating     21 bands with npw=   18283 for ikpt=  17 by node    8
P newkpt: treating     21 bands with npw=   18274 for ikpt=  18 by node    8
P newkpt: treating     21 bands with npw=   18247 for ikpt=  19 by node    9
P newkpt: treating     21 bands with npw=   18237 for ikpt=  20 by node    9

 setup2: Arith. and geom. avg. npw (full set) are   18279.844   18279.837

 BROYDEN STEP NUMBER   0  ------------------------------------------------------

[...]
    4      2.01681845949825     0.00000000000000     2.01681845949825
    5      2.01681845949825     2.01681845949825     0.00000000000000

 cartesian forces (hartree/bohr) at end:
    1      0.00000000000000     0.00000000000000     0.00000000000000
    2      0.00000000000000     0.00000000000000     0.00000000000000
    3      0.00000000000000     0.00000000000000     0.00000000000000
    4      0.00000000000000     0.00000000000000     0.00000000000000
    5      0.00000000000000     0.00000000000000     0.00000000000000
 frms,max,avg= 0.0000000E+00 0.0000000E+00   0.000E+00  0.000E+00  0.000E+00 h/b

 cartesian forces (eV/Angstrom) at end:
    1      0.00000000000000     0.00000000000000     0.00000000000000
    2      0.00000000000000     0.00000000000000     0.00000000000000
    3      0.00000000000000     0.00000000000000     0.00000000000000
    4      0.00000000000000     0.00000000000000     0.00000000000000
    5      0.00000000000000     0.00000000000000     0.00000000000000
 frms,max,avg= 0.0000000E+00 0.0000000E+00   0.000E+00  0.000E+00  0.000E+00 e/A
 length scales=  7.532369253048  7.532369253048  7.532369253048 bohr
              =  3.985958135397  3.985958135397  3.985958135397 angstroms
 prteigrs : about to open file perovskite-a0_o_EIG
 Fermi (or HOMO) energy (hartree) =   0.01420   Average Vxc (hartree)=  -0.42443
 Eigenvalues (hartree) for nkpt=  20  k points:
 kpt#   1, nband= 21, wtk=  0.01563, kpt=  0.0625  0.0625  0.0625 (reduced coord)
  -2.01506  -1.17470  -1.17469  -1.17469  -0.88726  -0.59621  -0.57099  -0.57099
  -0.34692  -0.34692  -0.34423  -0.07307  -0.06879  -0.06879  -0.03295  -0.03295
  -0.02361   0.00086   0.00741   0.00741   0.08478
 kpt#   2, nband= 21, wtk=  0.04688, kpt=  0.1875  0.0625  0.0625 (reduced coord)
  -2.01505  -1.17530  -1.17467  -1.17467  -0.88601  -0.59718  -0.57055  -0.56965
  -0.34586  -0.34559  -0.33947  -0.08954  -0.07373  -0.07216  -0.04711  -0.04365
  -0.02705  -0.01902   0.00001   0.00051   0.08608
 kpt#   3, nband= 21, wtk=  0.04688, kpt=  0.3125  0.0625  0.0625 (reduced coord)
  -2.01502  -1.17615  -1.17464  -1.17464  -0.88419  -0.60088  -0.56991  -0.56487
  -0.34366  -0.34264  -0.33457  -0.11322  -0.08126  -0.07909  -0.05935  -0.05778
  -0.03557  -0.03324  -0.00876  -0.00741   0.08801
 kpt#   4, nband= 21, wtk=  0.04688, kpt=  0.4375  0.0625  0.0625 (reduced coord)
  -2.01501  -1.17675  -1.17462  -1.17461  -0.88289  -0.60437  -0.56945  -0.56021
  -0.34226  -0.33968  -0.33185  -0.12971  -0.08629  -0.08490  -0.07184  -0.06305
  -0.04110  -0.03669  -0.01518  -0.01229   0.08951
 kpt#   5, nband= 21, wtk=  0.04688, kpt=  0.1875  0.1875  0.0625 (reduced coord)
  -2.01503  -1.17529  -1.17526  -1.17465  -0.88487  -0.59607  -0.57033  -0.56921
  -0.34740  -0.34466  -0.33532  -0.09911  -0.08311  -0.07510  -0.06278  -0.05249
  -0.03314  -0.02115  -0.00810  -0.00253   0.10483
 kpt#   6, nband= 21, wtk=  0.09375, kpt=  0.3125  0.1875  0.0625 (reduced coord)
  -2.01501  -1.17612  -1.17523  -1.17462  -0.88324  -0.59706  -0.56935  -0.56626
  -0.34662  -0.34256  -0.33346  -0.11692  -0.09298  -0.08379  -0.07667  -0.06204
  -0.04029  -0.02315  -0.01746  -0.00624   0.10575
 kpt#   7, nband= 21, wtk=  0.09375, kpt=  0.4375  0.1875  0.0625 (reduced coord)
  -2.01499  -1.17671  -1.17520  -1.17459  -0.88206  -0.59914  -0.56855  -0.56256
  -0.34538  -0.33899  -0.33511  -0.13155  -0.09854  -0.09174  -0.08458  -0.06601
  -0.03812  -0.02895  -0.02156  -0.01167   0.10698
 kpt#   8, nband= 21, wtk=  0.04688, kpt=  0.3125  0.3125  0.0625 (reduced coord)
  -2.01499  -1.17608  -1.17605  -1.17458  -0.88186  -0.59273  -0.56930  -0.56611
  -0.34820  -0.34271  -0.33409  -0.12415  -0.10752  -0.10430  -0.07926  -0.07156
  -0.04216  -0.02785  -0.01803   0.00184   0.12672
 kpt#   9, nband= 21, wtk=  0.09375, kpt=  0.4375  0.3125  0.0625 (reduced coord)
  -2.01497  -1.17665  -1.17603  -1.17456  -0.88087  -0.59111  -0.56806  -0.56552
  -0.34785  -0.34353  -0.33515  -0.13433  -0.11840  -0.11195  -0.08398  -0.07508
  -0.04121  -0.02769  -0.01985   0.00437   0.12872
 kpt#  10, nband= 21, wtk=  0.04688, kpt=  0.4375  0.4375  0.0625 (reduced coord)
  -2.01496  -1.17662  -1.17661  -1.17454  -0.88001  -0.58476  -0.56852  -0.56733
  -0.34878  -0.34756  -0.33451  -0.13955  -0.12935  -0.12463  -0.08352  -0.08261
  -0.04801  -0.01865  -0.01506   0.01129   0.14341
 kpt#  11, nband= 21, wtk=  0.01563, kpt=  0.1875  0.1875  0.1875 (reduced coord)
  -2.01502  -1.17527  -1.17523  -1.17523  -0.88383  -0.59377  -0.56948  -0.56948
  -0.34874  -0.34874  -0.33059  -0.10824  -0.08462  -0.08462  -0.06335  -0.06335
  -0.05172  -0.01333  -0.00829  -0.00829   0.11577
 kpt#  12, nband= 21, wtk=  0.04688, kpt=  0.3125  0.1875  0.1875 (reduced coord)
  -2.01499  -1.17608  -1.17522  -1.17520  -0.88233  -0.59287  -0.56826  -0.56720
  -0.35072  -0.34846  -0.33048  -0.12064  -0.09918  -0.08726  -0.07763  -0.07018
  -0.05574  -0.01644  -0.01177  -0.00941   0.11781
 kpt#  13, nband= 21, wtk=  0.04688, kpt=  0.4375  0.1875  0.1875 (reduced coord)
  -2.01498  -1.17667  -1.17519  -1.17517  -0.88126  -0.59384  -0.56738  -0.56372
  -0.35218  -0.34425  -0.33478  -0.13270  -0.10470  -0.09065  -0.08892  -0.07271
  -0.05103  -0.02181  -0.01397  -0.01329   0.11947
 kpt#  14, nband= 21, wtk=  0.04688, kpt=  0.3125  0.3125  0.1875 (reduced coord)
  -2.01497  -1.17605  -1.17603  -1.17517  -0.88104  -0.58787  -0.56789  -0.56620
  -0.35337  -0.35316  -0.33331  -0.12548  -0.10789  -0.10178  -0.08188  -0.07312
  -0.06469  -0.01864  -0.00988  -0.00026   0.13434
 kpt#  15, nband= 21, wtk=  0.09375, kpt=  0.4375  0.3125  0.1875 (reduced coord)
  -2.01496  -1.17662  -1.17601  -1.17515  -0.88011  -0.58571  -0.56647  -0.56507
  -0.35652  -0.35149  -0.33913  -0.13437  -0.11301  -0.10882  -0.08670  -0.07471
  -0.06331  -0.01838  -0.01169   0.00363   0.13687
 kpt#  16, nband= 21, wtk=  0.04688, kpt=  0.4375  0.4375  0.1875 (reduced coord)
  -2.01494  -1.17659  -1.17659  -1.17512  -0.87929  -0.57921  -0.56670  -0.56573
  -0.35654  -0.35619  -0.34520  -0.13917  -0.12452  -0.11288  -0.08263  -0.07793
  -0.07143  -0.01195  -0.00891   0.01178   0.14954
 kpt#  17, nband= 21, wtk=  0.01563, kpt=  0.3125  0.3125  0.3125 (reduced coord)
  -2.01495  -1.17602  -1.17599  -1.17599  -0.87987  -0.58130  -0.56582  -0.56582
  -0.36006  -0.36006  -0.34032  -0.12624  -0.10820  -0.10820  -0.09296  -0.07383
  -0.07383  -0.00662  -0.00662   0.00227   0.14664
 kpt#  18, nband= 21, wtk=  0.04688, kpt=  0.4375  0.3125  0.3125 (reduced coord)
  -2.01494  -1.17658  -1.17598  -1.17596  -0.87903  -0.57750  -0.56455  -0.56431
  -0.36487  -0.36056  -0.34915  -0.13495  -0.11289  -0.10829  -0.09777  -0.07372
  -0.07138  -0.00771  -0.00018   0.00579   0.14937
 kpt#  19, nband= 21, wtk=  0.04688, kpt=  0.4375  0.4375  0.3125 (reduced coord)
  -2.01492  -1.17655  -1.17655  -1.17594  -0.87825  -0.57092  -0.56402  -0.56345
  -0.36745  -0.36623  -0.35921  -0.13978  -0.12433  -0.10898  -0.09132  -0.07374
  -0.07289   0.00075   0.00247   0.01274   0.15900
 kpt#  20, nband= 21, wtk=  0.01563, kpt=  0.4375  0.4375  0.4375 (reduced coord)
  -2.01491  -1.17652  -1.17652  -1.17652  -0.87751  -0.56451  -0.56202  -0.56202
  -0.37308  -0.37308  -0.36970  -0.14410  -0.12418  -0.12418  -0.07751  -0.07212
  -0.07212   0.01168   0.01168   0.01420   0.16659
 Total charge density [el/Bohr^3]
,     Maximum=    1.2985E+00  at reduced coord.    0.5000    0.5000    0.5833
,Next maximum=    1.2985E+00  at reduced coord.    0.5000    0.5833    0.5000
,     Minimum=    8.6711E-05  at reduced coord.    0.0000    0.0000    0.0000
,Next minimum=    2.4963E-04  at reduced coord.    0.0139    0.0000    0.0000

 Components of total free energy (in Hartree) :

    Kinetic energy  =  6.02708451353632E+01
    Hartree energy  =  2.90456222585488E+01
    XC energy       = -2.14054157512895E+01
    Ewald energy    = -1.04095301943210E+02
    PspCore energy  =  1.47046596102944E+01
    Loc. psp. energy= -5.96850592571283E+01
    NL   psp  energy= -5.01987544920497E+01
    >>>>>>>>> Etotal= -1.31363404439471E+02

 Other information on the energy :
    Total energy(eV)= -3.57458002335887E+03 ; Band energy (Ha)=  -1.9478167694E+01

 Cartesian components of stress tensor (hartree/bohr^3)
  sigma(1 1)= -6.34776984E-09  sigma(3 2)=  0.00000000E+00
  sigma(2 2)= -6.34776987E-09  sigma(3 1)=  0.00000000E+00
  sigma(3 3)= -6.34776991E-09  sigma(2 1)=  0.00000000E+00

-Cartesian components of stress tensor (GPa)         [Pressure=  1.8676E-04 GPa]
- sigma(1 1)= -1.86757805E-04  sigma(3 2)=  0.00000000E+00
- sigma(2 2)= -1.86757806E-04  sigma(3 1)=  0.00000000E+00
- sigma(3 3)= -1.86757807E-04  sigma(2 1)=  0.00000000E+00

== END DATASET(S) ==============================================================

 -outvars: echo values of variables after computation  --------
     acell    7.5323692530E+00  7.5323692530E+00  7.5323692530E+00 Bohr
       amu    1.37327000E+02  4.78800000E+01  1.59994000E+01
    diemac    1.20000000E+01
   dilatmx    1.20000000E+00
      ecut    6.30000000E+01 Hartree
    ecutsm    3.00000000E+00 Hartree
    etotal   -1.3136340444E+02
     fcart    0.0000000000E+00  0.0000000000E+00  0.0000000000E+00
              0.0000000000E+00  0.0000000000E+00  0.0000000000E+00
              0.0000000000E+00  0.0000000000E+00  0.0000000000E+00
              0.0000000000E+00  0.0000000000E+00  0.0000000000E+00
              0.0000000000E+00  0.0000000000E+00  0.0000000000E+00
    ionmov         2
       ixc        23
       kpt    6.25000000E-02  6.25000000E-02  6.25000000E-02
              1.87500000E-01  6.25000000E-02  6.25000000E-02
              3.12500000E-01  6.25000000E-02  6.25000000E-02
              4.37500000E-01  6.25000000E-02  6.25000000E-02
              1.87500000E-01  1.87500000E-01  6.25000000E-02
              3.12500000E-01  1.87500000E-01  6.25000000E-02
              4.37500000E-01  1.87500000E-01  6.25000000E-02
              3.12500000E-01  3.12500000E-01  6.25000000E-02
              4.37500000E-01  3.12500000E-01  6.25000000E-02
              4.37500000E-01  4.37500000E-01  6.25000000E-02
              1.87500000E-01  1.87500000E-01  1.87500000E-01
              3.12500000E-01  1.87500000E-01  1.87500000E-01
              4.37500000E-01  1.87500000E-01  1.87500000E-01
              3.12500000E-01  3.12500000E-01  1.87500000E-01
              4.37500000E-01  3.12500000E-01  1.87500000E-01
              4.37500000E-01  4.37500000E-01  1.87500000E-01
              3.12500000E-01  3.12500000E-01  3.12500000E-01
              4.37500000E-01  3.12500000E-01  3.12500000E-01
              4.37500000E-01  4.37500000E-01  3.12500000E-01
              4.37500000E-01  4.37500000E-01  4.37500000E-01
   kptrlen    6.09797528E+01
    kptopt         1
  kptrlatt    8  0  0   0  8  0   0  0  8
P    mkmem         2
     natom         5
     nband        21
     ngfft        72      72      72
      nkpt        20
     nstep        35
      nsym        48
     ntime        30
    ntypat         3
       occ    2.000000  2.000000  2.000000  2.000000  2.000000  2.000000
              2.000000  2.000000  2.000000  2.000000  2.000000  2.000000
              2.000000  2.000000  2.000000  2.000000  2.000000  2.000000
              2.000000  2.000000  0.000000
   optcell         2
    prtden         0
     prtwf         0
    shiftk    5.00000000E-01  5.00000000E-01  5.00000000E-01
   spgroup       221
    strten   -6.3477698445E-09 -6.3477698653E-09 -6.3477699139E-09
              0.0000000000E+00  0.0000000000E+00  0.0000000000E+00
    symrel    1  0  0   0  1  0   0  0  1      -1  0  0   0 -1  0   0  0 -1
             -1  0  0   0  1  0   0  0 -1       1  0  0   0 -1  0   0  0  1
             -1  0  0   0 -1  0   0  0  1       1  0  0   0  1  0   0  0 -1
              1  0  0   0 -1  0   0  0 -1      -1  0  0   0  1  0   0  0  1
              0  1  0   1  0  0   0  0  1       0 -1  0  -1  0  0   0  0 -1
              0 -1  0   1  0  0   0  0 -1       0  1  0  -1  0  0   0  0  1
              0 -1  0  -1  0  0   0  0  1       0  1  0   1  0  0   0  0 -1
              0  1  0  -1  0  0   0  0 -1       0 -1  0   1  0  0   0  0  1
              0  0  1   1  0  0   0  1  0       0  0 -1  -1  0  0   0 -1  0
              0  0 -1   1  0  0   0 -1  0       0  0  1  -1  0  0   0  1  0
              0  0 -1  -1  0  0   0  1  0       0  0  1   1  0  0   0 -1  0
              0  0  1  -1  0  0   0 -1  0       0  0 -1   1  0  0   0  1  0
              1  0  0   0  0  1   0  1  0      -1  0  0   0  0 -1   0 -1  0
             -1  0  0   0  0  1   0 -1  0       1  0  0   0  0 -1   0  1  0
             -1  0  0   0  0 -1   0  1  0       1  0  0   0  0  1   0 -1  0
              1  0  0   0  0 -1   0 -1  0      -1  0  0   0  0  1   0  1  0
              0  1  0   0  0  1   1  0  0       0 -1  0   0  0 -1  -1  0  0
              0 -1  0   0  0  1  -1  0  0       0  1  0   0  0 -1   1  0  0
              0 -1  0   0  0 -1   1  0  0       0  1  0   0  0  1  -1  0  0
              0  1  0   0  0 -1  -1  0  0       0 -1  0   0  0  1   1  0  0
              0  0  1   0  1  0   1  0  0       0  0 -1   0 -1  0  -1  0  0
              0  0 -1   0  1  0  -1  0  0       0  0  1   0 -1  0   1  0  0
              0  0 -1   0 -1  0   1  0  0       0  0  1   0  1  0  -1  0  0
              0  0  1   0 -1  0  -1  0  0       0  0 -1   0  1  0   1  0  0
    toldfe    1.00000000E-10 Hartree
    tolmxf    1.00000000E-06
     typat    1  2  3  3  3
       wtk      0.01563    0.04688    0.04688    0.04688    0.04688    0.09375
                0.09375    0.04688    0.09375    0.04688    0.01563    0.04688
                0.04688    0.04688    0.09375    0.04688    0.01563    0.04688
                0.04688    0.01563
    xangst    0.0000000000E+00  0.0000000000E+00  0.0000000000E+00
              1.9929790677E+00  1.9929790677E+00  1.9929790677E+00
              0.0000000000E+00  1.9929790677E+00  1.9929790677E+00
              1.9929790677E+00  0.0000000000E+00  1.9929790677E+00
              1.9929790677E+00  1.9929790677E+00  0.0000000000E+00
     xcart    0.0000000000E+00  0.0000000000E+00  0.0000000000E+00
              3.7661846265E+00  3.7661846265E+00  3.7661846265E+00
              0.0000000000E+00  3.7661846265E+00  3.7661846265E+00
              3.7661846265E+00  0.0000000000E+00  3.7661846265E+00
              3.7661846265E+00  3.7661846265E+00  0.0000000000E+00
      xred    0.0000000000E+00  0.0000000000E+00  0.0000000000E+00
              5.0000000000E-01  5.0000000000E-01  5.0000000000E-01
              0.0000000000E+00  5.0000000000E-01  5.0000000000E-01
              5.0000000000E-01  0.0000000000E+00  5.0000000000E-01
              5.0000000000E-01  5.0000000000E-01  0.0000000000E+00
     znucl     56.00000   22.00000    8.00000

- Timing analysis has been suppressed with timopt=0

 Suggested references for the acknowledgment of ABINIT usage.

 [1] Ab initio pseudopotentials for electronic structure calculations of poly-atomic systems,
 using density-functional theory.
 M. Fuchs, M. Scheffler, Comput. Phys. Commun. 119, 67 (1999).
 Comment : Some pseudopotential generated using the FHI code were used.

 [2] A brief introduction to the ABINIT software package.
 X. Gonze, G.-M. Rignanese, M. Verstraete, J.-M. Beuken, Y. Pouillon, R. Caracas, F. Jollet,
 M. Torrent, G. Zerah, M. Mikami, Ph. Ghosez, M. Veithen, J.-Y. Raty, V. Olevano, F. Bruneval,
 L. Reining, R. Godby, G. Onida, D.R. Hamann, and D.C. Allan.
 Z. Kristallogr. 220, 558-562 (2005).
 Comment : the second generic paper describing the ABINIT project. Note that this paper
 should be cited, especially if you are using the GW part of ABINIT, as the authors
 of this part are not in the list of authors of the first paper.
 Note that it should not redistributed (Copyright by Oldenburg Wissenshaftverlag,
 the licence allows the authors to put it on the Web).

 [3] First-principles computation of material properties : the ABINIT software project.
 X. Gonze, J.-M. Beuken, R. Caracas, F. Detraux, M. Fuchs, G.-M. Rignanese, L. Sindic,
 M. Verstraete, G. Zerah, F. Jollet, M. Torrent, A. Roy, M. Mikami, Ph. Ghosez, J.-Y. Raty, D.C. Allan.
 Comment : the original paper describing the ABINIT project.

 And optionally :

 [4] Fast radix 2, 3, 4 and 5 kernels for Fast Fourier Transformations
 on computers with overlapping multiply-add instructions.
 S. Goedecker, SIAM J. on Scientific Computing 18, 1605 (1997).

 [5] Iterative minimization techniques for ab initio total-energy calculations:
 molecular dynamics and conjugate gradients.
 M.C. Payne, M.P. Teter, D.C. Allan, T.A. Arias and J.D. Joannopoulos, Rev. Mod. Phys. 64, 1045 (1992).
-

 Calculation completed.
.Delivered    2 WARNINGs and   6 COMMENTs to log file.