.Version 5.7.3  of ABINIT

 ABINIT is a project of the Universite Catholique de Louvain,
 Corning Inc. and other collaborators, see ~abinit/doc/developers/contributors.txt .
 Please read ~abinit/doc/users/acknowledgments.html for suggested
 acknowledgments of the ABINIT effort.

.Starting date : Tue  4 Aug 2009.

- input  file    -> perovskite-B44.in
- output file    -> perovskite-B44.out
- root for input  files -> perovskite-B44_i
- root for output files -> perovskite-B44_o

 DATASET    1 : space group R-3 m (#166); Bravais hR (rhombohedral)
   intxc =         0  ionmov =         0    iscf =         7 xclevel =         2
  lmnmax =         4   lnmax =         4   mband =        21  mffmem =         1
P  mgfft =        72   mkmem =         4 mpssoang=         4     mpw =     17662
  mqgrid =      3001   natom =         5    nfft =    373248    nkpt =        60
  nloalg =         4  nspden =         1 nspinor =         1  nsppol =         1
    nsym =        12  n1xccc =         0  ntypat =         3  occopt =         1
  Rough estimation (10% accuracy) of disk space for files :

[...]

 DATASET    9 : space group Pm -3 m (#221); Bravais cP (primitive cubic)
   intxc =         0  ionmov =         0    iscf =         7 xclevel =         2
  lmnmax =         4   lnmax =         4   mband =        21  mffmem =         1
P  mgfft =        72   mkmem =         2 mpssoang=         4     mpw =     17661
  mqgrid =      3001   natom =         5    nfft =    373248    nkpt =        20
  nloalg =         4  nspden =         1 nspinor =         1  nsppol =         1
    nsym =        48  n1xccc =         0  ntypat =         3  occopt =         1
  Rough estimation (10% accuracy) of disk space for files :

[...]

 DATASET   17 : space group R-3 m (#166); Bravais hR (rhombohedral)
   intxc =         0  ionmov =         0    iscf =         7 xclevel =         2
  lmnmax =         4   lnmax =         4   mband =        21  mffmem =         1
P  mgfft =        72   mkmem =         4 mpssoang=         4     mpw =     17701
  mqgrid =      3001   natom =         5    nfft =    373248    nkpt =        60
  nloalg =         4  nspden =         1 nspinor =         1  nsppol =         1
    nsym =        12  n1xccc =         0  ntypat =         3  occopt =         1
  Rough estimation (10% accuracy) of disk space for files :

 -outvars: echo values of preprocessed input variables --------
     acell    7.5323692530E+00  7.5323692530E+00  7.5323692530E+00 Bohr
       amu    1.37327000E+02  4.78800000E+01  1.59994000E+01
    diemac    1.20000000E+01
   dilatmx    1.20000000E+00
      ecut    6.30000000E+01 Hartree
    ecutsm    3.00000000E+00 Hartree
    getwfk        -1
       ixc        23
    jdtset      1    2    3    4    5    6    7    8    9   10
               11   12   13   14   15   16   17
       kpt1   6.25000000E-02  6.25000000E-02  6.25000000E-02
              1.87500000E-01  6.25000000E-02  6.25000000E-02
              3.12500000E-01  6.25000000E-02  6.25000000E-02
              4.37500000E-01  6.25000000E-02  6.25000000E-02
             -4.37500000E-01  6.25000000E-02  6.25000000E-02
             -3.12500000E-01  6.25000000E-02  6.25000000E-02
             -1.87500000E-01  6.25000000E-02  6.25000000E-02
             -6.25000000E-02  6.25000000E-02  6.25000000E-02
              1.87500000E-01  1.87500000E-01  6.25000000E-02
              3.12500000E-01  1.87500000E-01  6.25000000E-02
              4.37500000E-01  1.87500000E-01  6.25000000E-02
             -4.37500000E-01  1.87500000E-01  6.25000000E-02
             -3.12500000E-01  1.87500000E-01  6.25000000E-02
             -1.87500000E-01  1.87500000E-01  6.25000000E-02
             -6.25000000E-02  1.87500000E-01  6.25000000E-02
              3.12500000E-01  3.12500000E-01  6.25000000E-02
              4.37500000E-01  3.12500000E-01  6.25000000E-02
             -4.37500000E-01  3.12500000E-01  6.25000000E-02
             -3.12500000E-01  3.12500000E-01  6.25000000E-02
             -1.87500000E-01  3.12500000E-01  6.25000000E-02
             -6.25000000E-02  3.12500000E-01  6.25000000E-02
              4.37500000E-01  4.37500000E-01  6.25000000E-02
             -4.37500000E-01  4.37500000E-01  6.25000000E-02
             -3.12500000E-01  4.37500000E-01  6.25000000E-02
             -1.87500000E-01  4.37500000E-01  6.25000000E-02
             -6.25000000E-02  4.37500000E-01  6.25000000E-02
             -4.37500000E-01 -4.37500000E-01  6.25000000E-02
             -3.12500000E-01 -4.37500000E-01  6.25000000E-02
             -1.87500000E-01 -4.37500000E-01  6.25000000E-02
             -3.12500000E-01 -3.12500000E-01  6.25000000E-02
             -1.87500000E-01 -3.12500000E-01  6.25000000E-02
             -1.87500000E-01 -1.87500000E-01  6.25000000E-02
              1.87500000E-01  1.87500000E-01  1.87500000E-01
              3.12500000E-01  1.87500000E-01  1.87500000E-01
              4.37500000E-01  1.87500000E-01  1.87500000E-01
             -4.37500000E-01  1.87500000E-01  1.87500000E-01
             -3.12500000E-01  1.87500000E-01  1.87500000E-01
             -1.87500000E-01  1.87500000E-01  1.87500000E-01
              3.12500000E-01  3.12500000E-01  1.87500000E-01
              4.37500000E-01  3.12500000E-01  1.87500000E-01
             -4.37500000E-01  3.12500000E-01  1.87500000E-01
             -3.12500000E-01  3.12500000E-01  1.87500000E-01
             -1.87500000E-01  3.12500000E-01  1.87500000E-01
              4.37500000E-01  4.37500000E-01  1.87500000E-01
             -4.37500000E-01  4.37500000E-01  1.87500000E-01
             -3.12500000E-01  4.37500000E-01  1.87500000E-01
             -1.87500000E-01  4.37500000E-01  1.87500000E-01
             -4.37500000E-01 -4.37500000E-01  1.87500000E-01
             -3.12500000E-01 -4.37500000E-01  1.87500000E-01
             -3.12500000E-01 -3.12500000E-01  1.87500000E-01
                outvar1 : prtvol=0, do not print more k-points.
       kpt2   6.25000000E-02  6.25000000E-02  6.25000000E-02
              1.87500000E-01  6.25000000E-02  6.25000000E-02
              3.12500000E-01  6.25000000E-02  6.25000000E-02
              4.37500000E-01  6.25000000E-02  6.25000000E-02
             -4.37500000E-01  6.25000000E-02  6.25000000E-02
             -3.12500000E-01  6.25000000E-02  6.25000000E-02
             -1.87500000E-01  6.25000000E-02  6.25000000E-02
             -6.25000000E-02  6.25000000E-02  6.25000000E-02
              1.87500000E-01  1.87500000E-01  6.25000000E-02
              3.12500000E-01  1.87500000E-01  6.25000000E-02
              4.37500000E-01  1.87500000E-01  6.25000000E-02
             -4.37500000E-01  1.87500000E-01  6.25000000E-02
             -3.12500000E-01  1.87500000E-01  6.25000000E-02
             -1.87500000E-01  1.87500000E-01  6.25000000E-02
             -6.25000000E-02  1.87500000E-01  6.25000000E-02
              3.12500000E-01  3.12500000E-01  6.25000000E-02
              4.37500000E-01  3.12500000E-01  6.25000000E-02
             -4.37500000E-01  3.12500000E-01  6.25000000E-02
             -3.12500000E-01  3.12500000E-01  6.25000000E-02
             -1.87500000E-01  3.12500000E-01  6.25000000E-02
             -6.25000000E-02  3.12500000E-01  6.25000000E-02
              4.37500000E-01  4.37500000E-01  6.25000000E-02
             -4.37500000E-01  4.37500000E-01  6.25000000E-02
             -3.12500000E-01  4.37500000E-01  6.25000000E-02
             -1.87500000E-01  4.37500000E-01  6.25000000E-02
             -6.25000000E-02  4.37500000E-01  6.25000000E-02
             -4.37500000E-01 -4.37500000E-01  6.25000000E-02
             -3.12500000E-01 -4.37500000E-01  6.25000000E-02
             -1.87500000E-01 -4.37500000E-01  6.25000000E-02
             -3.12500000E-01 -3.12500000E-01  6.25000000E-02
             -1.87500000E-01 -3.12500000E-01  6.25000000E-02
             -1.87500000E-01 -1.87500000E-01  6.25000000E-02
              1.87500000E-01  1.87500000E-01  1.87500000E-01
              3.12500000E-01  1.87500000E-01  1.87500000E-01
              4.37500000E-01  1.87500000E-01  1.87500000E-01
             -4.37500000E-01  1.87500000E-01  1.87500000E-01
             -3.12500000E-01  1.87500000E-01  1.87500000E-01
             -1.87500000E-01  1.87500000E-01  1.87500000E-01
              3.12500000E-01  3.12500000E-01  1.87500000E-01
              4.37500000E-01  3.12500000E-01  1.87500000E-01
             -4.37500000E-01  3.12500000E-01  1.87500000E-01
             -3.12500000E-01  3.12500000E-01  1.87500000E-01
             -1.87500000E-01  3.12500000E-01  1.87500000E-01
              4.37500000E-01  4.37500000E-01  1.87500000E-01
             -4.37500000E-01  4.37500000E-01  1.87500000E-01
             -3.12500000E-01  4.37500000E-01  1.87500000E-01
             -1.87500000E-01  4.37500000E-01  1.87500000E-01
             -4.37500000E-01 -4.37500000E-01  1.87500000E-01
             -3.12500000E-01 -4.37500000E-01  1.87500000E-01
             -3.12500000E-01 -3.12500000E-01  1.87500000E-01
                outvar1 : prtvol=0, do not print more k-points.
       kpt3   6.25000000E-02  6.25000000E-02  6.25000000E-02
              1.87500000E-01  6.25000000E-02  6.25000000E-02
              3.12500000E-01  6.25000000E-02  6.25000000E-02
              4.37500000E-01  6.25000000E-02  6.25000000E-02
             -4.37500000E-01  6.25000000E-02  6.25000000E-02
             -3.12500000E-01  6.25000000E-02  6.25000000E-02
             -1.87500000E-01  6.25000000E-02  6.25000000E-02
             -6.25000000E-02  6.25000000E-02  6.25000000E-02
              1.87500000E-01  1.87500000E-01  6.25000000E-02
              3.12500000E-01  1.87500000E-01  6.25000000E-02
              4.37500000E-01  1.87500000E-01  6.25000000E-02
             -4.37500000E-01  1.87500000E-01  6.25000000E-02
             -3.12500000E-01  1.87500000E-01  6.25000000E-02
             -1.87500000E-01  1.87500000E-01  6.25000000E-02
             -6.25000000E-02  1.87500000E-01  6.25000000E-02
              3.12500000E-01  3.12500000E-01  6.25000000E-02
              4.37500000E-01  3.12500000E-01  6.25000000E-02
             -4.37500000E-01  3.12500000E-01  6.25000000E-02
             -3.12500000E-01  3.12500000E-01  6.25000000E-02
             -1.87500000E-01  3.12500000E-01  6.25000000E-02
             -6.25000000E-02  3.12500000E-01  6.25000000E-02
              4.37500000E-01  4.37500000E-01  6.25000000E-02
             -4.37500000E-01  4.37500000E-01  6.25000000E-02
             -3.12500000E-01  4.37500000E-01  6.25000000E-02
             -1.87500000E-01  4.37500000E-01  6.25000000E-02
             -6.25000000E-02  4.37500000E-01  6.25000000E-02
             -4.37500000E-01 -4.37500000E-01  6.25000000E-02
             -3.12500000E-01 -4.37500000E-01  6.25000000E-02
             -1.87500000E-01 -4.37500000E-01  6.25000000E-02
             -3.12500000E-01 -3.12500000E-01  6.25000000E-02
             -1.87500000E-01 -3.12500000E-01  6.25000000E-02
             -1.87500000E-01 -1.87500000E-01  6.25000000E-02
              1.87500000E-01  1.87500000E-01  1.87500000E-01
              3.12500000E-01  1.87500000E-01  1.87500000E-01
              4.37500000E-01  1.87500000E-01  1.87500000E-01
[...]
                0.02344    0.01172
                outvar1 : prtvol=0, do not print more k-points.
       wtk14    0.00391    0.01172    0.01172    0.01172    0.01172    0.01172
                0.01172    0.01172    0.01172    0.02344    0.02344    0.02344
                0.02344    0.02344    0.02344    0.01172    0.02344    0.02344
                0.02344    0.02344    0.02344    0.01172    0.02344    0.02344
                0.02344    0.02344    0.01172    0.02344    0.02344    0.01172
                0.02344    0.01172    0.00391    0.01172    0.01172    0.01172
                0.01172    0.01172    0.01172    0.02344    0.02344    0.02344
                0.02344    0.01172    0.02344    0.02344    0.02344    0.01172
                0.02344    0.01172
                outvar1 : prtvol=0, do not print more k-points.
       wtk15    0.00391    0.01172    0.01172    0.01172    0.01172    0.01172
                0.01172    0.01172    0.01172    0.02344    0.02344    0.02344
                0.02344    0.02344    0.02344    0.01172    0.02344    0.02344
                0.02344    0.02344    0.02344    0.01172    0.02344    0.02344
                0.02344    0.02344    0.01172    0.02344    0.02344    0.01172
                0.02344    0.01172    0.00391    0.01172    0.01172    0.01172
                0.01172    0.01172    0.01172    0.02344    0.02344    0.02344
                0.02344    0.01172    0.02344    0.02344    0.02344    0.01172
                0.02344    0.01172
                outvar1 : prtvol=0, do not print more k-points.
       wtk16    0.00391    0.01172    0.01172    0.01172    0.01172    0.01172
                0.01172    0.01172    0.01172    0.02344    0.02344    0.02344
                0.02344    0.02344    0.02344    0.01172    0.02344    0.02344
                0.02344    0.02344    0.02344    0.01172    0.02344    0.02344
                0.02344    0.02344    0.01172    0.02344    0.02344    0.01172
                0.02344    0.01172    0.00391    0.01172    0.01172    0.01172
                0.01172    0.01172    0.01172    0.02344    0.02344    0.02344
                0.02344    0.01172    0.02344    0.02344    0.02344    0.01172
                0.02344    0.01172
                outvar1 : prtvol=0, do not print more k-points.
       wtk17    0.00391    0.01172    0.01172    0.01172    0.01172    0.01172
                0.01172    0.01172    0.01172    0.02344    0.02344    0.02344
                0.02344    0.02344    0.02344    0.01172    0.02344    0.02344
                0.02344    0.02344    0.02344    0.01172    0.02344    0.02344
                0.02344    0.02344    0.01172    0.02344    0.02344    0.01172
                0.02344    0.01172    0.00391    0.01172    0.01172    0.01172
                0.01172    0.01172    0.01172    0.02344    0.02344    0.02344
                0.02344    0.01172    0.02344    0.02344    0.02344    0.01172
                0.02344    0.01172
                outvar1 : prtvol=0, do not print more k-points.
    xangst1   0.0000000000E+00  0.0000000000E+00  0.0000000000E+00
              1.9610914026E+00  1.9610914026E+00  1.9610914026E+00
             -3.1887665083E-02  1.9770352351E+00  1.9770352351E+00
              1.9770352351E+00 -3.1887665083E-02  1.9770352351E+00
              1.9770352351E+00  1.9770352351E+00 -3.1887665083E-02
    xangst2   0.0000000000E+00  0.0000000000E+00  0.0000000000E+00
              1.9650773607E+00  1.9650773607E+00  1.9650773607E+00
             -2.7901706948E-02  1.9790282142E+00  1.9790282142E+00
              1.9790282142E+00 -2.7901706948E-02  1.9790282142E+00
              1.9790282142E+00  1.9790282142E+00 -2.7901706948E-02
    xangst3   0.0000000000E+00  0.0000000000E+00  0.0000000000E+00
              1.9690633189E+00  1.9690633189E+00  1.9690633189E+00
             -2.3915748812E-02  1.9810211933E+00  1.9810211933E+00
              1.9810211933E+00 -2.3915748812E-02  1.9810211933E+00
              1.9810211933E+00  1.9810211933E+00 -2.3915748812E-02
    xangst4   0.0000000000E+00  0.0000000000E+00  0.0000000000E+00
              1.9730492770E+00  1.9730492770E+00  1.9730492770E+00
             -1.9929790677E-02  1.9830141723E+00  1.9830141723E+00
              1.9830141723E+00 -1.9929790677E-02  1.9830141723E+00
              1.9830141723E+00  1.9830141723E+00 -1.9929790677E-02
    xangst5   0.0000000000E+00  0.0000000000E+00  0.0000000000E+00
              1.9770352351E+00  1.9770352351E+00  1.9770352351E+00
             -1.5943832541E-02  1.9850071514E+00  1.9850071514E+00
              1.9850071514E+00 -1.5943832541E-02  1.9850071514E+00
              1.9850071514E+00  1.9850071514E+00 -1.5943832541E-02
    xangst6   0.0000000000E+00  0.0000000000E+00  0.0000000000E+00
              1.9810211933E+00  1.9810211933E+00  1.9810211933E+00
             -1.1957874406E-02  1.9870001305E+00  1.9870001305E+00
              1.9870001305E+00 -1.1957874406E-02  1.9870001305E+00
              1.9870001305E+00  1.9870001305E+00 -1.1957874406E-02
    xangst7   0.0000000000E+00  0.0000000000E+00  0.0000000000E+00
              1.9850071514E+00  1.9850071514E+00  1.9850071514E+00
             -7.9719162707E-03  1.9889931096E+00  1.9889931096E+00
              1.9889931096E+00 -7.9719162707E-03  1.9889931096E+00
              1.9889931096E+00  1.9889931096E+00 -7.9719162707E-03
    xangst8   0.0000000000E+00  0.0000000000E+00  0.0000000000E+00
              1.9889931096E+00  1.9889931096E+00  1.9889931096E+00
             -3.9859581354E-03  1.9909860886E+00  1.9909860886E+00
              1.9909860886E+00 -3.9859581354E-03  1.9909860886E+00
              1.9909860886E+00  1.9909860886E+00 -3.9859581354E-03
    xangst9   0.0000000000E+00  0.0000000000E+00  0.0000000000E+00
              1.9929790677E+00  1.9929790677E+00  1.9929790677E+00
              0.0000000000E+00  1.9929790677E+00  1.9929790677E+00
              1.9929790677E+00  0.0000000000E+00  1.9929790677E+00
              1.9929790677E+00  1.9929790677E+00  0.0000000000E+00
    xangst10  0.0000000000E+00  0.0000000000E+00  0.0000000000E+00
              1.9969650258E+00  1.9969650258E+00  1.9969650258E+00
              3.9859581354E-03  1.9949720468E+00  1.9949720468E+00
              1.9949720468E+00  3.9859581354E-03  1.9949720468E+00
              1.9949720468E+00  1.9949720468E+00  3.9859581354E-03
    xangst11  0.0000000000E+00  0.0000000000E+00  0.0000000000E+00
              2.0009509840E+00  2.0009509840E+00  2.0009509840E+00
              7.9719162707E-03  1.9969650258E+00  1.9969650258E+00
              1.9969650258E+00  7.9719162707E-03  1.9969650258E+00
              1.9969650258E+00  1.9969650258E+00  7.9719162707E-03
    xangst12  0.0000000000E+00  0.0000000000E+00  0.0000000000E+00
              2.0049369421E+00  2.0049369421E+00  2.0049369421E+00
              1.1957874406E-02  1.9989580049E+00  1.9989580049E+00
              1.9989580049E+00  1.1957874406E-02  1.9989580049E+00
              1.9989580049E+00  1.9989580049E+00  1.1957874406E-02
    xangst13  0.0000000000E+00  0.0000000000E+00  0.0000000000E+00
              2.0089229002E+00  2.0089229002E+00  2.0089229002E+00
              1.5943832541E-02  2.0009509840E+00  2.0009509840E+00
              2.0009509840E+00  1.5943832541E-02  2.0009509840E+00
              2.0009509840E+00  2.0009509840E+00  1.5943832541E-02
    xangst14  0.0000000000E+00  0.0000000000E+00  0.0000000000E+00
              2.0129088584E+00  2.0129088584E+00  2.0129088584E+00
              1.9929790677E-02  2.0029439630E+00  2.0029439630E+00
              2.0029439630E+00  1.9929790677E-02  2.0029439630E+00
              2.0029439630E+00  2.0029439630E+00  1.9929790677E-02
    xangst15  0.0000000000E+00  0.0000000000E+00  0.0000000000E+00
              2.0168948165E+00  2.0168948165E+00  2.0168948165E+00
              2.3915748812E-02  2.0049369421E+00  2.0049369421E+00
              2.0049369421E+00  2.3915748812E-02  2.0049369421E+00
              2.0049369421E+00  2.0049369421E+00  2.3915748812E-02
    xangst16  0.0000000000E+00  0.0000000000E+00  0.0000000000E+00
              2.0208807746E+00  2.0208807746E+00  2.0208807746E+00
              2.7901706948E-02  2.0069299212E+00  2.0069299212E+00
              2.0069299212E+00  2.7901706948E-02  2.0069299212E+00
              2.0069299212E+00  2.0069299212E+00  2.7901706948E-02
    xangst17  0.0000000000E+00  0.0000000000E+00  0.0000000000E+00
              2.0248667328E+00  2.0248667328E+00  2.0248667328E+00
              3.1887665083E-02  2.0089229002E+00  2.0089229002E+00
              2.0089229002E+00  3.1887665083E-02  2.0089229002E+00
              2.0089229002E+00  2.0089229002E+00  3.1887665083E-02
     xcart1   0.0000000000E+00  0.0000000000E+00  0.0000000000E+00
              3.7059256725E+00  3.7059256725E+00  3.7059256725E+00
             -6.0258954024E-02  3.7360551495E+00  3.7360551495E+00
              3.7360551495E+00 -6.0258954024E-02  3.7360551495E+00
              3.7360551495E+00  3.7360551495E+00 -6.0258954024E-02
     xcart2   0.0000000000E+00  0.0000000000E+00  0.0000000000E+00
              3.7134580417E+00  3.7134580417E+00  3.7134580417E+00
             -5.2726584771E-02  3.7398213341E+00  3.7398213341E+00
              3.7398213341E+00 -5.2726584771E-02  3.7398213341E+00
              3.7398213341E+00  3.7398213341E+00 -5.2726584771E-02
     xcart3   0.0000000000E+00  0.0000000000E+00  0.0000000000E+00
              3.7209904110E+00  3.7209904110E+00  3.7209904110E+00
             -4.5194215518E-02  3.7435875187E+00  3.7435875187E+00
              3.7435875187E+00 -4.5194215518E-02  3.7435875187E+00
              3.7435875187E+00  3.7435875187E+00 -4.5194215518E-02
     xcart4   0.0000000000E+00  0.0000000000E+00  0.0000000000E+00
              3.7285227802E+00  3.7285227802E+00  3.7285227802E+00
             -3.7661846265E-02  3.7473537034E+00  3.7473537034E+00
              3.7473537034E+00 -3.7661846265E-02  3.7473537034E+00
              3.7473537034E+00  3.7473537034E+00 -3.7661846265E-02
     xcart5   0.0000000000E+00  0.0000000000E+00  0.0000000000E+00
              3.7360551495E+00  3.7360551495E+00  3.7360551495E+00
             -3.0129477012E-02  3.7511198880E+00  3.7511198880E+00
              3.7511198880E+00 -3.0129477012E-02  3.7511198880E+00
              3.7511198880E+00  3.7511198880E+00 -3.0129477012E-02
     xcart6   0.0000000000E+00  0.0000000000E+00  0.0000000000E+00
              3.7435875187E+00  3.7435875187E+00  3.7435875187E+00
             -2.2597107759E-02  3.7548860726E+00  3.7548860726E+00
              3.7548860726E+00 -2.2597107759E-02  3.7548860726E+00
              3.7548860726E+00  3.7548860726E+00 -2.2597107759E-02
     xcart7   0.0000000000E+00  0.0000000000E+00  0.0000000000E+00
              3.7511198880E+00  3.7511198880E+00  3.7511198880E+00
             -1.5064738506E-02  3.7586522572E+00  3.7586522572E+00
              3.7586522572E+00 -1.5064738506E-02  3.7586522572E+00
              3.7586522572E+00  3.7586522572E+00 -1.5064738506E-02
     xcart8   0.0000000000E+00  0.0000000000E+00  0.0000000000E+00
              3.7586522572E+00  3.7586522572E+00  3.7586522572E+00
             -7.5323692530E-03  3.7624184419E+00  3.7624184419E+00
              3.7624184419E+00 -7.5323692530E-03  3.7624184419E+00
              3.7624184419E+00  3.7624184419E+00 -7.5323692530E-03
     xcart9   0.0000000000E+00  0.0000000000E+00  0.0000000000E+00
              3.7661846265E+00  3.7661846265E+00  3.7661846265E+00
              0.0000000000E+00  3.7661846265E+00  3.7661846265E+00
              3.7661846265E+00  0.0000000000E+00  3.7661846265E+00
              3.7661846265E+00  3.7661846265E+00  0.0000000000E+00
     xcart10  0.0000000000E+00  0.0000000000E+00  0.0000000000E+00
              3.7737169958E+00  3.7737169958E+00  3.7737169958E+00
              7.5323692530E-03  3.7699508111E+00  3.7699508111E+00
              3.7699508111E+00  7.5323692530E-03  3.7699508111E+00
              3.7699508111E+00  3.7699508111E+00  7.5323692530E-03
     xcart11  0.0000000000E+00  0.0000000000E+00  0.0000000000E+00
              3.7812493650E+00  3.7812493650E+00  3.7812493650E+00
              1.5064738506E-02  3.7737169958E+00  3.7737169958E+00
              3.7737169958E+00  1.5064738506E-02  3.7737169958E+00
              3.7737169958E+00  3.7737169958E+00  1.5064738506E-02
     xcart12  0.0000000000E+00  0.0000000000E+00  0.0000000000E+00
              3.7887817343E+00  3.7887817343E+00  3.7887817343E+00
              2.2597107759E-02  3.7774831804E+00  3.7774831804E+00
              3.7774831804E+00  2.2597107759E-02  3.7774831804E+00
              3.7774831804E+00  3.7774831804E+00  2.2597107759E-02
     xcart13  0.0000000000E+00  0.0000000000E+00  0.0000000000E+00
              3.7963141035E+00  3.7963141035E+00  3.7963141035E+00
              3.0129477012E-02  3.7812493650E+00  3.7812493650E+00
              3.7812493650E+00  3.0129477012E-02  3.7812493650E+00
              3.7812493650E+00  3.7812493650E+00  3.0129477012E-02
     xcart14  0.0000000000E+00  0.0000000000E+00  0.0000000000E+00
              3.8038464728E+00  3.8038464728E+00  3.8038464728E+00
              3.7661846265E-02  3.7850155496E+00  3.7850155496E+00
              3.7850155496E+00  3.7661846265E-02  3.7850155496E+00
              3.7850155496E+00  3.7850155496E+00  3.7661846265E-02
     xcart15  0.0000000000E+00  0.0000000000E+00  0.0000000000E+00
              3.8113788420E+00  3.8113788420E+00  3.8113788420E+00
              4.5194215518E-02  3.7887817343E+00  3.7887817343E+00
              3.7887817343E+00  4.5194215518E-02  3.7887817343E+00
              3.7887817343E+00  3.7887817343E+00  4.5194215518E-02
     xcart16  0.0000000000E+00  0.0000000000E+00  0.0000000000E+00
              3.8189112113E+00  3.8189112113E+00  3.8189112113E+00
              5.2726584771E-02  3.7925479189E+00  3.7925479189E+00
              3.7925479189E+00  5.2726584771E-02  3.7925479189E+00
              3.7925479189E+00  3.7925479189E+00  5.2726584771E-02
     xcart17  0.0000000000E+00  0.0000000000E+00  0.0000000000E+00
              3.8264435805E+00  3.8264435805E+00  3.8264435805E+00
              6.0258954024E-02  3.7963141035E+00  3.7963141035E+00
              3.7963141035E+00  6.0258954024E-02  3.7963141035E+00
              3.7963141035E+00  3.7963141035E+00  6.0258954024E-02
      xred    0.0000000000E+00  0.0000000000E+00  0.0000000000E+00
              5.0000000000E-01  5.0000000000E-01  5.0000000000E-01
              0.0000000000E+00  5.0000000000E-01  5.0000000000E-01
              5.0000000000E-01  0.0000000000E+00  5.0000000000E-01
              5.0000000000E-01  5.0000000000E-01  0.0000000000E+00
     znucl     56.00000   22.00000    8.00000

- Timing analysis has been suppressed with timopt=0

 Suggested references for the acknowledgment of ABINIT usage.

 [1] Ab initio pseudopotentials for electronic structure calculations of poly-atomic systems,
 using density-functional theory.
 M. Fuchs, M. Scheffler, Comput. Phys. Commun. 119, 67 (1999).
 Comment : Some pseudopotential generated using the FHI code were used.

 [2] A brief introduction to the ABINIT software package.
 X. Gonze, G.-M. Rignanese, M. Verstraete, J.-M. Beuken, Y. Pouillon, R. Caracas, F. Jollet,
 M. Torrent, G. Zerah, M. Mikami, Ph. Ghosez, M. Veithen, J.-Y. Raty, V. Olevano, F. Bruneval,
 L. Reining, R. Godby, G. Onida, D.R. Hamann, and D.C. Allan.
 Z. Kristallogr. 220, 558-562 (2005).
 Comment : the second generic paper describing the ABINIT project. Note that this paper
 should be cited, especially if you are using the GW part of ABINIT, as the authors
 of this part are not in the list of authors of the first paper.
 Note that it should not redistributed (Copyright by Oldenburg Wissenshaftverlag,
 the licence allows the authors to put it on the Web).

 [3] First-principles computation of material properties : the ABINIT software project.
 X. Gonze, J.-M. Beuken, R. Caracas, F. Detraux, M. Fuchs, G.-M. Rignanese, L. Sindic,
 M. Verstraete, G. Zerah, F. Jollet, M. Torrent, A. Roy, M. Mikami, Ph. Ghosez, J.-Y. Raty, D.C. Allan.
 Comment : the original paper describing the ABINIT project.

 And optionally :

 [4] Fast radix 2, 3, 4 and 5 kernels for Fast Fourier Transformations
 on computers with overlapping multiply-add instructions.
 S. Goedecker, SIAM J. on Scientific Computing 18, 1605 (1997).

 [5] Iterative minimization techniques for ab initio total-energy calculations:
 molecular dynamics and conjugate gradients.
 M.C. Payne, M.P. Teter, D.C. Allan, T.A. Arias and J.D. Joannopoulos, Rev. Mod. Phys. 64, 1045 (1992).
-

 Calculation completed.
.Delivered   34 WARNINGs and  34 COMMENTs to log file.