.Version 5.7.3  of ABINIT

 ABINIT is a project of the Universite Catholique de Louvain,
 Corning Inc. and other collaborators, see ~abinit/doc/developers/contributors.txt .
 Please read ~abinit/doc/users/acknowledgments.html for suggested
 acknowledgments of the ABINIT effort.

.Starting date : Thu  6 Aug 2009.

- input  file    -> perovskite-B1112.in
- output file    -> perovskite-B1112.out
- root for input  files -> perovskite-B1112_i
- root for output files -> perovskite-B1112_o

 DATASET    1 : space group Pm -3 m (#221); Bravais cP (primitive cubic)
   intxc =         0  ionmov =         0    iscf =         7 xclevel =         2
  lmnmax =         4   lnmax =         4   mband =        21  mffmem =         1
P  mgfft =        64   mkmem =         2 mpssoang=         4     mpw =     17092
  mqgrid =      3001   natom =         5    nfft =    262144    nkpt =        20
  nloalg =         4  nspden =         1 nspinor =         1  nsppol =         1
    nsym =        48  n1xccc =         0  ntypat =         3  occopt =         1
  Rough estimation (10% accuracy) of disk space for files :

[...]

 DATASET   10 : space group P4/m m m (#123); Bravais tP (primitive tetrag.)
   intxc =         0  ionmov =         0    iscf =         7 xclevel =         2
  lmnmax =         4   lnmax =         4   mband =        21  mffmem =         1
P  mgfft =        72   mkmem =         3 mpssoang=         4     mpw =     17432
  mqgrid =      3001   natom =         5    nfft =    331776    nkpt =        40
  nloalg =         4  nspden =         1 nspinor =         1  nsppol =         1
    nsym =        16  n1xccc =         0  ntypat =         3  occopt =         1
  Rough estimation (10% accuracy) of disk space for files :

[...]

 DATASET   15 : space group Pm -3 m (#221); Bravais cP (primitive cubic)
   intxc =         0  ionmov =         0    iscf =         7 xclevel =         2
  lmnmax =         4   lnmax =         4   mband =        21  mffmem =         1
P  mgfft =        72   mkmem =         2 mpssoang=         4     mpw =     17661
  mqgrid =      3001   natom =         5    nfft =    373248    nkpt =        20
  nloalg =         4  nspden =         1 nspinor =         1  nsppol =         1
    nsym =        48  n1xccc =         0  ntypat =         3  occopt =         1
  Rough estimation (10% accuracy) of disk space for files :

[...]

 DATASET   19 : space group P4/m m m (#123); Bravais tP (primitive tetrag.)
   intxc =         0  ionmov =         0    iscf =         7 xclevel =         2
  lmnmax =         4   lnmax =         4   mband =        21  mffmem =         1
P  mgfft =        72   mkmem =         3 mpssoang=         4     mpw =     17849
  mqgrid =      3001   natom =         5    nfft =    373248    nkpt =        40
  nloalg =         4  nspden =         1 nspinor =         1  nsppol =         1
    nsym =        16  n1xccc =         0  ntypat =         3  occopt =         1
  Rough estimation (10% accuracy) of disk space for files :

 -outvars: echo values of preprocessed input variables --------
     acell1   7.4500000000E+00  7.4500000000E+00  7.4500000000E+00 Bohr
     acell2   7.4700000000E+00  7.4700000000E+00  7.4700000000E+00 Bohr
     acell3   7.4900000000E+00  7.4900000000E+00  7.4900000000E+00 Bohr
     acell4   7.5100000000E+00  7.5100000000E+00  7.5100000000E+00 Bohr
     acell5   7.5323692530E+00  7.5323692530E+00  7.5323692530E+00 Bohr
     acell6   7.5500000000E+00  7.5500000000E+00  7.5500000000E+00 Bohr
     acell7   7.5700000000E+00  7.5700000000E+00  7.5700000000E+00 Bohr
     acell8   7.5900000000E+00  7.5900000000E+00  7.5900000000E+00 Bohr
     acell9   7.6100000000E+00  7.6100000000E+00  7.6100000000E+00 Bohr
     acell10  7.5323692530E+00  7.5323692530E+00  7.4300000000E+00 Bohr
     acell11  7.5323692530E+00  7.5323692530E+00  7.4500000000E+00 Bohr
     acell12  7.5323692530E+00  7.5323692530E+00  7.4700000000E+00 Bohr
     acell13  7.5323692530E+00  7.5323692530E+00  7.4900000000E+00 Bohr
     acell14  7.5323692530E+00  7.5323692530E+00  7.5100000000E+00 Bohr
     acell15  7.5323692530E+00  7.5323692530E+00  7.5323692530E+00 Bohr
     acell16  7.5323692530E+00  7.5323692530E+00  7.5500000000E+00 Bohr
     acell17  7.5323692530E+00  7.5323692530E+00  7.5700000000E+00 Bohr
     acell18  7.5323692530E+00  7.5323692530E+00  7.5900000000E+00 Bohr
     acell19  7.5323692530E+00  7.5323692530E+00  7.6100000000E+00 Bohr
       amu    1.37327000E+02  4.78800000E+01  1.59994000E+01
    diemac    1.20000000E+01
   dilatmx    1.20000000E+00
      ecut    6.30000000E+01 Hartree
    ecutsm    3.00000000E+00 Hartree
    getwfk        -1
       ixc        23
    jdtset      1    2    3    4    5    6    7    8    9   10
               11   12   13   14   15   16   17   18   19
       kpt1   6.25000000E-02  6.25000000E-02  6.25000000E-02
              1.87500000E-01  6.25000000E-02  6.25000000E-02
              3.12500000E-01  6.25000000E-02  6.25000000E-02
              4.37500000E-01  6.25000000E-02  6.25000000E-02
              1.87500000E-01  1.87500000E-01  6.25000000E-02
              3.12500000E-01  1.87500000E-01  6.25000000E-02
              4.37500000E-01  1.87500000E-01  6.25000000E-02
              3.12500000E-01  3.12500000E-01  6.25000000E-02
              4.37500000E-01  3.12500000E-01  6.25000000E-02
              4.37500000E-01  4.37500000E-01  6.25000000E-02
              1.87500000E-01  1.87500000E-01  1.87500000E-01
              3.12500000E-01  1.87500000E-01  1.87500000E-01
              4.37500000E-01  1.87500000E-01  1.87500000E-01
              3.12500000E-01  3.12500000E-01  1.87500000E-01
              4.37500000E-01  3.12500000E-01  1.87500000E-01
              4.37500000E-01  4.37500000E-01  1.87500000E-01
              3.12500000E-01  3.12500000E-01  3.12500000E-01
              4.37500000E-01  3.12500000E-01  3.12500000E-01
              4.37500000E-01  4.37500000E-01  3.12500000E-01
              4.37500000E-01  4.37500000E-01  4.37500000E-01
       kpt2   6.25000000E-02  6.25000000E-02  6.25000000E-02
              1.87500000E-01  6.25000000E-02  6.25000000E-02
              3.12500000E-01  6.25000000E-02  6.25000000E-02
              4.37500000E-01  6.25000000E-02  6.25000000E-02
              1.87500000E-01  1.87500000E-01  6.25000000E-02
              3.12500000E-01  1.87500000E-01  6.25000000E-02
              4.37500000E-01  1.87500000E-01  6.25000000E-02
              3.12500000E-01  3.12500000E-01  6.25000000E-02
              4.37500000E-01  3.12500000E-01  6.25000000E-02
              4.37500000E-01  4.37500000E-01  6.25000000E-02
              1.87500000E-01  1.87500000E-01  1.87500000E-01
              3.12500000E-01  1.87500000E-01  1.87500000E-01
              4.37500000E-01  1.87500000E-01  1.87500000E-01
              3.12500000E-01  3.12500000E-01  1.87500000E-01
              4.37500000E-01  3.12500000E-01  1.87500000E-01
              4.37500000E-01  4.37500000E-01  1.87500000E-01
              3.12500000E-01  3.12500000E-01  3.12500000E-01
              4.37500000E-01  3.12500000E-01  3.12500000E-01
              4.37500000E-01  4.37500000E-01  3.12500000E-01
              4.37500000E-01  4.37500000E-01  4.37500000E-01
       kpt3   6.25000000E-02  6.25000000E-02  6.25000000E-02
              1.87500000E-01  6.25000000E-02  6.25000000E-02
              3.12500000E-01  6.25000000E-02  6.25000000E-02
              4.37500000E-01  6.25000000E-02  6.25000000E-02
              1.87500000E-01  1.87500000E-01  6.25000000E-02
              3.12500000E-01  1.87500000E-01  6.25000000E-02
              4.37500000E-01  1.87500000E-01  6.25000000E-02
              3.12500000E-01  3.12500000E-01  6.25000000E-02
              4.37500000E-01  3.12500000E-01  6.25000000E-02
              4.37500000E-01  4.37500000E-01  6.25000000E-02
              1.87500000E-01  1.87500000E-01  1.87500000E-01
              3.12500000E-01  1.87500000E-01  1.87500000E-01
              4.37500000E-01  1.87500000E-01  1.87500000E-01
              3.12500000E-01  3.12500000E-01  1.87500000E-01
              4.37500000E-01  3.12500000E-01  1.87500000E-01
              4.37500000E-01  4.37500000E-01  1.87500000E-01
              3.12500000E-01  3.12500000E-01  3.12500000E-01
              4.37500000E-01  3.12500000E-01  3.12500000E-01
              4.37500000E-01  4.37500000E-01  3.12500000E-01
              4.37500000E-01  4.37500000E-01  4.37500000E-01
       kpt4   6.25000000E-02  6.25000000E-02  6.25000000E-02
              1.87500000E-01  6.25000000E-02  6.25000000E-02
              3.12500000E-01  6.25000000E-02  6.25000000E-02
              4.37500000E-01  6.25000000E-02  6.25000000E-02
              1.87500000E-01  1.87500000E-01  6.25000000E-02
              3.12500000E-01  1.87500000E-01  6.25000000E-02
              4.37500000E-01  1.87500000E-01  6.25000000E-02
              3.12500000E-01  3.12500000E-01  6.25000000E-02
              4.37500000E-01  3.12500000E-01  6.25000000E-02
              4.37500000E-01  4.37500000E-01  6.25000000E-02
              1.87500000E-01  1.87500000E-01  1.87500000E-01
              3.12500000E-01  1.87500000E-01  1.87500000E-01
              4.37500000E-01  1.87500000E-01  1.87500000E-01
              3.12500000E-01  3.12500000E-01  1.87500000E-01
              4.37500000E-01  3.12500000E-01  1.87500000E-01
              4.37500000E-01  4.37500000E-01  1.87500000E-01
              3.12500000E-01  3.12500000E-01  3.12500000E-01
              4.37500000E-01  3.12500000E-01  3.12500000E-01
              4.37500000E-01  4.37500000E-01  3.12500000E-01
              4.37500000E-01  4.37500000E-01  4.37500000E-01
       kpt5   6.25000000E-02  6.25000000E-02  6.25000000E-02
              1.87500000E-01  6.25000000E-02  6.25000000E-02
              3.12500000E-01  6.25000000E-02  6.25000000E-02
              4.37500000E-01  6.25000000E-02  6.25000000E-02
              1.87500000E-01  1.87500000E-01  6.25000000E-02
              3.12500000E-01  1.87500000E-01  6.25000000E-02
              4.37500000E-01  1.87500000E-01  6.25000000E-02
              3.12500000E-01  3.12500000E-01  6.25000000E-02
              4.37500000E-01  3.12500000E-01  6.25000000E-02
              4.37500000E-01  4.37500000E-01  6.25000000E-02
              1.87500000E-01  1.87500000E-01  1.87500000E-01
              3.12500000E-01  1.87500000E-01  1.87500000E-01
              4.37500000E-01  1.87500000E-01  1.87500000E-01
              3.12500000E-01  3.12500000E-01  1.87500000E-01
              4.37500000E-01  3.12500000E-01  1.87500000E-01
              4.37500000E-01  4.37500000E-01  1.87500000E-01
              3.12500000E-01  3.12500000E-01  3.12500000E-01
              4.37500000E-01  3.12500000E-01  3.12500000E-01
              4.37500000E-01  4.37500000E-01  3.12500000E-01
              4.37500000E-01  4.37500000E-01  4.37500000E-01
       kpt6   6.25000000E-02  6.25000000E-02  6.25000000E-02
              1.87500000E-01  6.25000000E-02  6.25000000E-02
              3.12500000E-01  6.25000000E-02  6.25000000E-02
              4.37500000E-01  6.25000000E-02  6.25000000E-02
              1.87500000E-01  1.87500000E-01  6.25000000E-02
[...]
                0.03125    0.01563    0.03125    0.01563
       wtk17    0.01563    0.03125    0.03125    0.03125    0.01563    0.03125
                0.03125    0.01563    0.03125    0.01563    0.01563    0.03125
                0.03125    0.03125    0.01563    0.03125    0.03125    0.01563
                0.03125    0.01563    0.01563    0.03125    0.03125    0.03125
                0.01563    0.03125    0.03125    0.01563    0.03125    0.01563
                0.01563    0.03125    0.03125    0.03125    0.01563    0.03125
                0.03125    0.01563    0.03125    0.01563
       wtk18    0.01563    0.03125    0.03125    0.03125    0.01563    0.03125
                0.03125    0.01563    0.03125    0.01563    0.01563    0.03125
                0.03125    0.03125    0.01563    0.03125    0.03125    0.01563
                0.03125    0.01563    0.01563    0.03125    0.03125    0.03125
                0.01563    0.03125    0.03125    0.01563    0.03125    0.01563
                0.01563    0.03125    0.03125    0.03125    0.01563    0.03125
                0.03125    0.01563    0.03125    0.01563
       wtk19    0.01563    0.03125    0.03125    0.03125    0.01563    0.03125
                0.03125    0.01563    0.03125    0.01563    0.01563    0.03125
                0.03125    0.03125    0.01563    0.03125    0.03125    0.01563
                0.03125    0.01563    0.01563    0.03125    0.03125    0.03125
                0.01563    0.03125    0.03125    0.01563    0.03125    0.01563
                0.01563    0.03125    0.03125    0.03125    0.01563    0.03125
                0.03125    0.01563    0.03125    0.01563
    xangst1   0.0000000000E+00  0.0000000000E+00  0.0000000000E+00
              1.9711851020E+00  1.9711851020E+00  1.9711851020E+00
              0.0000000000E+00  1.9711851020E+00  1.9711851020E+00
              1.9711851020E+00  0.0000000000E+00  1.9711851020E+00
              1.9711851020E+00  1.9711851020E+00  0.0000000000E+00
    xangst2   0.0000000000E+00  0.0000000000E+00  0.0000000000E+00
              1.9764768741E+00  1.9764768741E+00  1.9764768741E+00
              0.0000000000E+00  1.9764768741E+00  1.9764768741E+00
              1.9764768741E+00  0.0000000000E+00  1.9764768741E+00
              1.9764768741E+00  1.9764768741E+00  0.0000000000E+00
    xangst3   0.0000000000E+00  0.0000000000E+00  0.0000000000E+00
              1.9817686462E+00  1.9817686462E+00  1.9817686462E+00
              0.0000000000E+00  1.9817686462E+00  1.9817686462E+00
              1.9817686462E+00  0.0000000000E+00  1.9817686462E+00
              1.9817686462E+00  1.9817686462E+00  0.0000000000E+00
    xangst4   0.0000000000E+00  0.0000000000E+00  0.0000000000E+00
              1.9870604183E+00  1.9870604183E+00  1.9870604183E+00
              0.0000000000E+00  1.9870604183E+00  1.9870604183E+00
              1.9870604183E+00  0.0000000000E+00  1.9870604183E+00
              1.9870604183E+00  1.9870604183E+00  0.0000000000E+00
    xangst5   0.0000000000E+00  0.0000000000E+00  0.0000000000E+00
              1.9929790677E+00  1.9929790677E+00  1.9929790677E+00
              0.0000000000E+00  1.9929790677E+00  1.9929790677E+00
              1.9929790677E+00  0.0000000000E+00  1.9929790677E+00
              1.9929790677E+00  1.9929790677E+00  0.0000000000E+00
    xangst6   0.0000000000E+00  0.0000000000E+00  0.0000000000E+00
              1.9976439624E+00  1.9976439624E+00  1.9976439624E+00
              0.0000000000E+00  1.9976439624E+00  1.9976439624E+00
              1.9976439624E+00  0.0000000000E+00  1.9976439624E+00
              1.9976439624E+00  1.9976439624E+00  0.0000000000E+00
    xangst7   0.0000000000E+00  0.0000000000E+00  0.0000000000E+00
              2.0029357345E+00  2.0029357345E+00  2.0029357345E+00
              0.0000000000E+00  2.0029357345E+00  2.0029357345E+00
              2.0029357345E+00  0.0000000000E+00  2.0029357345E+00
              2.0029357345E+00  2.0029357345E+00  0.0000000000E+00
    xangst8   0.0000000000E+00  0.0000000000E+00  0.0000000000E+00
              2.0082275066E+00  2.0082275066E+00  2.0082275066E+00
              0.0000000000E+00  2.0082275066E+00  2.0082275066E+00
              2.0082275066E+00  0.0000000000E+00  2.0082275066E+00
              2.0082275066E+00  2.0082275066E+00  0.0000000000E+00
    xangst9   0.0000000000E+00  0.0000000000E+00  0.0000000000E+00
              2.0135192787E+00  2.0135192787E+00  2.0135192787E+00
              0.0000000000E+00  2.0135192787E+00  2.0135192787E+00
              2.0135192787E+00  0.0000000000E+00  2.0135192787E+00
              2.0135192787E+00  2.0135192787E+00  0.0000000000E+00
    xangst10  0.0000000000E+00  0.0000000000E+00  0.0000000000E+00
              1.9929790677E+00  1.9929790677E+00  1.9658933299E+00
              0.0000000000E+00  1.9929790677E+00  1.9658933299E+00
              1.9929790677E+00  0.0000000000E+00  1.9658933299E+00
              1.9929790677E+00  1.9929790677E+00  0.0000000000E+00
    xangst11  0.0000000000E+00  0.0000000000E+00  0.0000000000E+00
              1.9929790677E+00  1.9929790677E+00  1.9711851020E+00
              0.0000000000E+00  1.9929790677E+00  1.9711851020E+00
              1.9929790677E+00  0.0000000000E+00  1.9711851020E+00
              1.9929790677E+00  1.9929790677E+00  0.0000000000E+00
    xangst12  0.0000000000E+00  0.0000000000E+00  0.0000000000E+00
              1.9929790677E+00  1.9929790677E+00  1.9764768741E+00
              0.0000000000E+00  1.9929790677E+00  1.9764768741E+00
              1.9929790677E+00  0.0000000000E+00  1.9764768741E+00
              1.9929790677E+00  1.9929790677E+00  0.0000000000E+00
    xangst13  0.0000000000E+00  0.0000000000E+00  0.0000000000E+00
              1.9929790677E+00  1.9929790677E+00  1.9817686462E+00
              0.0000000000E+00  1.9929790677E+00  1.9817686462E+00
              1.9929790677E+00  0.0000000000E+00  1.9817686462E+00
              1.9929790677E+00  1.9929790677E+00  0.0000000000E+00
    xangst14  0.0000000000E+00  0.0000000000E+00  0.0000000000E+00
              1.9929790677E+00  1.9929790677E+00  1.9870604183E+00
              0.0000000000E+00  1.9929790677E+00  1.9870604183E+00
              1.9929790677E+00  0.0000000000E+00  1.9870604183E+00
              1.9929790677E+00  1.9929790677E+00  0.0000000000E+00
    xangst15  0.0000000000E+00  0.0000000000E+00  0.0000000000E+00
              1.9929790677E+00  1.9929790677E+00  1.9929790677E+00
              0.0000000000E+00  1.9929790677E+00  1.9929790677E+00
              1.9929790677E+00  0.0000000000E+00  1.9929790677E+00
              1.9929790677E+00  1.9929790677E+00  0.0000000000E+00
    xangst16  0.0000000000E+00  0.0000000000E+00  0.0000000000E+00
              1.9929790677E+00  1.9929790677E+00  1.9976439624E+00
              0.0000000000E+00  1.9929790677E+00  1.9976439624E+00
              1.9929790677E+00  0.0000000000E+00  1.9976439624E+00
              1.9929790677E+00  1.9929790677E+00  0.0000000000E+00
    xangst17  0.0000000000E+00  0.0000000000E+00  0.0000000000E+00
              1.9929790677E+00  1.9929790677E+00  2.0029357345E+00
              0.0000000000E+00  1.9929790677E+00  2.0029357345E+00
              1.9929790677E+00  0.0000000000E+00  2.0029357345E+00
              1.9929790677E+00  1.9929790677E+00  0.0000000000E+00
    xangst18  0.0000000000E+00  0.0000000000E+00  0.0000000000E+00
              1.9929790677E+00  1.9929790677E+00  2.0082275066E+00
              0.0000000000E+00  1.9929790677E+00  2.0082275066E+00
              1.9929790677E+00  0.0000000000E+00  2.0082275066E+00
              1.9929790677E+00  1.9929790677E+00  0.0000000000E+00
    xangst19  0.0000000000E+00  0.0000000000E+00  0.0000000000E+00
              1.9929790677E+00  1.9929790677E+00  2.0135192787E+00
              0.0000000000E+00  1.9929790677E+00  2.0135192787E+00
              1.9929790677E+00  0.0000000000E+00  2.0135192787E+00
              1.9929790677E+00  1.9929790677E+00  0.0000000000E+00
     xcart1   0.0000000000E+00  0.0000000000E+00  0.0000000000E+00
              3.7250000000E+00  3.7250000000E+00  3.7250000000E+00
              0.0000000000E+00  3.7250000000E+00  3.7250000000E+00
              3.7250000000E+00  0.0000000000E+00  3.7250000000E+00
              3.7250000000E+00  3.7250000000E+00  0.0000000000E+00
     xcart2   0.0000000000E+00  0.0000000000E+00  0.0000000000E+00
              3.7350000000E+00  3.7350000000E+00  3.7350000000E+00
              0.0000000000E+00  3.7350000000E+00  3.7350000000E+00
              3.7350000000E+00  0.0000000000E+00  3.7350000000E+00
              3.7350000000E+00  3.7350000000E+00  0.0000000000E+00
     xcart3   0.0000000000E+00  0.0000000000E+00  0.0000000000E+00
              3.7450000000E+00  3.7450000000E+00  3.7450000000E+00
              0.0000000000E+00  3.7450000000E+00  3.7450000000E+00
              3.7450000000E+00  0.0000000000E+00  3.7450000000E+00
              3.7450000000E+00  3.7450000000E+00  0.0000000000E+00
     xcart4   0.0000000000E+00  0.0000000000E+00  0.0000000000E+00
              3.7550000000E+00  3.7550000000E+00  3.7550000000E+00
              0.0000000000E+00  3.7550000000E+00  3.7550000000E+00
              3.7550000000E+00  0.0000000000E+00  3.7550000000E+00
              3.7550000000E+00  3.7550000000E+00  0.0000000000E+00
     xcart5   0.0000000000E+00  0.0000000000E+00  0.0000000000E+00
              3.7661846265E+00  3.7661846265E+00  3.7661846265E+00
              0.0000000000E+00  3.7661846265E+00  3.7661846265E+00
              3.7661846265E+00  0.0000000000E+00  3.7661846265E+00
              3.7661846265E+00  3.7661846265E+00  0.0000000000E+00
     xcart6   0.0000000000E+00  0.0000000000E+00  0.0000000000E+00
              3.7750000000E+00  3.7750000000E+00  3.7750000000E+00
              0.0000000000E+00  3.7750000000E+00  3.7750000000E+00
              3.7750000000E+00  0.0000000000E+00  3.7750000000E+00
              3.7750000000E+00  3.7750000000E+00  0.0000000000E+00
     xcart7   0.0000000000E+00  0.0000000000E+00  0.0000000000E+00
              3.7850000000E+00  3.7850000000E+00  3.7850000000E+00
              0.0000000000E+00  3.7850000000E+00  3.7850000000E+00
              3.7850000000E+00  0.0000000000E+00  3.7850000000E+00
              3.7850000000E+00  3.7850000000E+00  0.0000000000E+00
     xcart8   0.0000000000E+00  0.0000000000E+00  0.0000000000E+00
              3.7950000000E+00  3.7950000000E+00  3.7950000000E+00
              0.0000000000E+00  3.7950000000E+00  3.7950000000E+00
              3.7950000000E+00  0.0000000000E+00  3.7950000000E+00
              3.7950000000E+00  3.7950000000E+00  0.0000000000E+00
     xcart9   0.0000000000E+00  0.0000000000E+00  0.0000000000E+00
              3.8050000000E+00  3.8050000000E+00  3.8050000000E+00
              0.0000000000E+00  3.8050000000E+00  3.8050000000E+00
              3.8050000000E+00  0.0000000000E+00  3.8050000000E+00
              3.8050000000E+00  3.8050000000E+00  0.0000000000E+00
     xcart10  0.0000000000E+00  0.0000000000E+00  0.0000000000E+00
              3.7661846265E+00  3.7661846265E+00  3.7150000000E+00
              0.0000000000E+00  3.7661846265E+00  3.7150000000E+00
              3.7661846265E+00  0.0000000000E+00  3.7150000000E+00
              3.7661846265E+00  3.7661846265E+00  0.0000000000E+00
     xcart11  0.0000000000E+00  0.0000000000E+00  0.0000000000E+00
              3.7661846265E+00  3.7661846265E+00  3.7250000000E+00
              0.0000000000E+00  3.7661846265E+00  3.7250000000E+00
              3.7661846265E+00  0.0000000000E+00  3.7250000000E+00
              3.7661846265E+00  3.7661846265E+00  0.0000000000E+00
     xcart12  0.0000000000E+00  0.0000000000E+00  0.0000000000E+00
              3.7661846265E+00  3.7661846265E+00  3.7350000000E+00
              0.0000000000E+00  3.7661846265E+00  3.7350000000E+00
              3.7661846265E+00  0.0000000000E+00  3.7350000000E+00
              3.7661846265E+00  3.7661846265E+00  0.0000000000E+00
     xcart13  0.0000000000E+00  0.0000000000E+00  0.0000000000E+00
              3.7661846265E+00  3.7661846265E+00  3.7450000000E+00
              0.0000000000E+00  3.7661846265E+00  3.7450000000E+00
              3.7661846265E+00  0.0000000000E+00  3.7450000000E+00
              3.7661846265E+00  3.7661846265E+00  0.0000000000E+00
     xcart14  0.0000000000E+00  0.0000000000E+00  0.0000000000E+00
              3.7661846265E+00  3.7661846265E+00  3.7550000000E+00
              0.0000000000E+00  3.7661846265E+00  3.7550000000E+00
              3.7661846265E+00  0.0000000000E+00  3.7550000000E+00
              3.7661846265E+00  3.7661846265E+00  0.0000000000E+00
     xcart15  0.0000000000E+00  0.0000000000E+00  0.0000000000E+00
              3.7661846265E+00  3.7661846265E+00  3.7661846265E+00
              0.0000000000E+00  3.7661846265E+00  3.7661846265E+00
              3.7661846265E+00  0.0000000000E+00  3.7661846265E+00
              3.7661846265E+00  3.7661846265E+00  0.0000000000E+00
     xcart16  0.0000000000E+00  0.0000000000E+00  0.0000000000E+00
              3.7661846265E+00  3.7661846265E+00  3.7750000000E+00
              0.0000000000E+00  3.7661846265E+00  3.7750000000E+00
              3.7661846265E+00  0.0000000000E+00  3.7750000000E+00
              3.7661846265E+00  3.7661846265E+00  0.0000000000E+00
     xcart17  0.0000000000E+00  0.0000000000E+00  0.0000000000E+00
              3.7661846265E+00  3.7661846265E+00  3.7850000000E+00
              0.0000000000E+00  3.7661846265E+00  3.7850000000E+00
              3.7661846265E+00  0.0000000000E+00  3.7850000000E+00
              3.7661846265E+00  3.7661846265E+00  0.0000000000E+00
     xcart18  0.0000000000E+00  0.0000000000E+00  0.0000000000E+00
              3.7661846265E+00  3.7661846265E+00  3.7950000000E+00
              0.0000000000E+00  3.7661846265E+00  3.7950000000E+00
              3.7661846265E+00  0.0000000000E+00  3.7950000000E+00
              3.7661846265E+00  3.7661846265E+00  0.0000000000E+00
     xcart19  0.0000000000E+00  0.0000000000E+00  0.0000000000E+00
              3.7661846265E+00  3.7661846265E+00  3.8050000000E+00
              0.0000000000E+00  3.7661846265E+00  3.8050000000E+00
              3.7661846265E+00  0.0000000000E+00  3.8050000000E+00
              3.7661846265E+00  3.7661846265E+00  0.0000000000E+00
      xred    0.0000000000E+00  0.0000000000E+00  0.0000000000E+00
              5.0000000000E-01  5.0000000000E-01  5.0000000000E-01
              0.0000000000E+00  5.0000000000E-01  5.0000000000E-01
              5.0000000000E-01  0.0000000000E+00  5.0000000000E-01
              5.0000000000E-01  5.0000000000E-01  0.0000000000E+00
     znucl     56.00000   22.00000    8.00000

- Timing analysis has been suppressed with timopt=0

 Suggested references for the acknowledgment of ABINIT usage.

 [1] Ab initio pseudopotentials for electronic structure calculations of poly-atomic systems,
 using density-functional theory.
 M. Fuchs, M. Scheffler, Comput. Phys. Commun. 119, 67 (1999).
 Comment : Some pseudopotential generated using the FHI code were used.

 [2] A brief introduction to the ABINIT software package.
 X. Gonze, G.-M. Rignanese, M. Verstraete, J.-M. Beuken, Y. Pouillon, R. Caracas, F. Jollet,
 M. Torrent, G. Zerah, M. Mikami, Ph. Ghosez, M. Veithen, J.-Y. Raty, V. Olevano, F. Bruneval,
 L. Reining, R. Godby, G. Onida, D.R. Hamann, and D.C. Allan.
 Z. Kristallogr. 220, 558-562 (2005).
 Comment : the second generic paper describing the ABINIT project. Note that this paper
 should be cited, especially if you are using the GW part of ABINIT, as the authors
 of this part are not in the list of authors of the first paper.
 Note that it should not redistributed (Copyright by Oldenburg Wissenshaftverlag,
 the licence allows the authors to put it on the Web).

 [3] First-principles computation of material properties : the ABINIT software project.
 X. Gonze, J.-M. Beuken, R. Caracas, F. Detraux, M. Fuchs, G.-M. Rignanese, L. Sindic,
 M. Verstraete, G. Zerah, F. Jollet, M. Torrent, A. Roy, M. Mikami, Ph. Ghosez, J.-Y. Raty, D.C. Allan.
 Comment : the original paper describing the ABINIT project.

 And optionally :

 [4] Fast radix 2, 3, 4 and 5 kernels for Fast Fourier Transformations
 on computers with overlapping multiply-add instructions.
 S. Goedecker, SIAM J. on Scientific Computing 18, 1605 (1997).

 [5] Iterative minimization techniques for ab initio total-energy calculations:
 molecular dynamics and conjugate gradients.
 M.C. Payne, M.P. Teter, D.C. Allan, T.A. Arias and J.D. Joannopoulos, Rev. Mod. Phys. 64, 1045 (1992).
-

 Calculation completed.
.Delivered   38 WARNINGs and  35 COMMENTs to log file.