.Version 5.7.3  of ABINIT

 ABINIT is a project of the Universite Catholique de Louvain,
 Corning Inc. and other collaborators, see ~abinit/doc/developers/contributors.txt .
 Please read ~abinit/doc/users/acknowledgments.html for suggested
 acknowledgments of the ABINIT effort.

.Starting date : Wed  5 Aug 2009.

- input  file    -> perovskite-S.in
- output file    -> perovskite-S.out
- root for input  files -> perovskite-Gamma_o
- root for output files -> perovskite-S_o

 DATASET    1 : space group Pm -3 m (#221); Bravais cP (primitive cubic)
   intxc =         0    iscf =         5 xclevel =         2  lmnmax =         4
   lnmax =         4   mband =        20  mffmem =         1   mgfft =        54
P  mkmem =        32  mkqmem =        32  mk1mem =        32 mpssoang=         4
     mpw =      9516  mqgrid =      3001   natom =         5    nfft =    157464
    nkpt =       512  nloalg =         4  nspden =         1 nspinor =         1
  nsppol =         1    nsym =        48  n1xccc =         0  ntypat =         3
  occopt =         1
  Rough estimation (10% accuracy) of disk space for files :

 -outvars: echo values of preprocessed input variables --------
     acell    7.5323692530E+00  7.5323692530E+00  7.5323692530E+00 Bohr
       amu    1.37327000E+02  4.78800000E+01  1.59994000E+01
    diemac    9.00000000E+00
      ecut    6.00000000E+01 Hartree
    irdwfk         1
      iscf         5
       ixc        23
    jdtset      1
       kpt    6.25000000E-02  6.25000000E-02  6.25000000E-02
              1.87500000E-01  6.25000000E-02  6.25000000E-02
              3.12500000E-01  6.25000000E-02  6.25000000E-02
              4.37500000E-01  6.25000000E-02  6.25000000E-02
             -4.37500000E-01  6.25000000E-02  6.25000000E-02
             -3.12500000E-01  6.25000000E-02  6.25000000E-02
             -1.87500000E-01  6.25000000E-02  6.25000000E-02
             -6.25000000E-02  6.25000000E-02  6.25000000E-02
              6.25000000E-02  1.87500000E-01  6.25000000E-02
              1.87500000E-01  1.87500000E-01  6.25000000E-02
              3.12500000E-01  1.87500000E-01  6.25000000E-02
              4.37500000E-01  1.87500000E-01  6.25000000E-02
             -4.37500000E-01  1.87500000E-01  6.25000000E-02
             -3.12500000E-01  1.87500000E-01  6.25000000E-02
             -1.87500000E-01  1.87500000E-01  6.25000000E-02
             -6.25000000E-02  1.87500000E-01  6.25000000E-02
              6.25000000E-02  3.12500000E-01  6.25000000E-02
              1.87500000E-01  3.12500000E-01  6.25000000E-02
              3.12500000E-01  3.12500000E-01  6.25000000E-02
              4.37500000E-01  3.12500000E-01  6.25000000E-02
             -4.37500000E-01  3.12500000E-01  6.25000000E-02
             -3.12500000E-01  3.12500000E-01  6.25000000E-02
             -1.87500000E-01  3.12500000E-01  6.25000000E-02
             -6.25000000E-02  3.12500000E-01  6.25000000E-02
              6.25000000E-02  4.37500000E-01  6.25000000E-02
              1.87500000E-01  4.37500000E-01  6.25000000E-02
              3.12500000E-01  4.37500000E-01  6.25000000E-02
              4.37500000E-01  4.37500000E-01  6.25000000E-02
             -4.37500000E-01  4.37500000E-01  6.25000000E-02
             -3.12500000E-01  4.37500000E-01  6.25000000E-02
             -1.87500000E-01  4.37500000E-01  6.25000000E-02
             -6.25000000E-02  4.37500000E-01  6.25000000E-02
              6.25000000E-02 -4.37500000E-01  6.25000000E-02
              1.87500000E-01 -4.37500000E-01  6.25000000E-02
              3.12500000E-01 -4.37500000E-01  6.25000000E-02
              4.37500000E-01 -4.37500000E-01  6.25000000E-02
             -4.37500000E-01 -4.37500000E-01  6.25000000E-02
             -3.12500000E-01 -4.37500000E-01  6.25000000E-02
             -1.87500000E-01 -4.37500000E-01  6.25000000E-02
             -6.25000000E-02 -4.37500000E-01  6.25000000E-02
              6.25000000E-02 -3.12500000E-01  6.25000000E-02
              1.87500000E-01 -3.12500000E-01  6.25000000E-02
              3.12500000E-01 -3.12500000E-01  6.25000000E-02
              4.37500000E-01 -3.12500000E-01  6.25000000E-02
             -4.37500000E-01 -3.12500000E-01  6.25000000E-02
             -3.12500000E-01 -3.12500000E-01  6.25000000E-02
             -1.87500000E-01 -3.12500000E-01  6.25000000E-02
             -6.25000000E-02 -3.12500000E-01  6.25000000E-02
              6.25000000E-02 -1.87500000E-01  6.25000000E-02
              1.87500000E-01 -1.87500000E-01  6.25000000E-02
                       outvar1 : prtvol=0, do not print more k-points.
   kptrlen    6.02589540E+01
    kptopt         3
  kptrlatt    8  0  0   0  8  0   0  0  8
P    mkmem        32
P   mkqmem        32
P   mk1mem        32
     natom         5
     nband        20
    ndtset         1
     ngfft        54      54      54
      nkpt       512
      nqpt         1
     nstep        70
      nsym        48
    ntypat         3
       occ    2.000000  2.000000  2.000000  2.000000  2.000000  2.000000
              2.000000  2.000000  2.000000  2.000000  2.000000  2.000000
              2.000000  2.000000  2.000000  2.000000  2.000000  2.000000
              2.000000  2.000000
 optdriver         1
    prtden         0
     prtwf         0
       qpt    5.00000000E-01  2.50000000E-01  2.50000000E-01
   rfatpol         1       5
     rfdir         1       1       1
    rfphon         1
    shiftk    5.00000000E-01  5.00000000E-01  5.00000000E-01
   spgroup       221
    symrel    1  0  0   0  1  0   0  0  1      -1  0  0   0 -1  0   0  0 -1
             -1  0  0   0  1  0   0  0 -1       1  0  0   0 -1  0   0  0  1
             -1  0  0   0 -1  0   0  0  1       1  0  0   0  1  0   0  0 -1
              1  0  0   0 -1  0   0  0 -1      -1  0  0   0  1  0   0  0  1
              0  1  0   1  0  0   0  0  1       0 -1  0  -1  0  0   0  0 -1
              0 -1  0   1  0  0   0  0 -1       0  1  0  -1  0  0   0  0  1
              0 -1  0  -1  0  0   0  0  1       0  1  0   1  0  0   0  0 -1
              0  1  0  -1  0  0   0  0 -1       0 -1  0   1  0  0   0  0  1
              0  0  1   1  0  0   0  1  0       0  0 -1  -1  0  0   0 -1  0
              0  0 -1   1  0  0   0 -1  0       0  0  1  -1  0  0   0  1  0
              0  0 -1  -1  0  0   0  1  0       0  0  1   1  0  0   0 -1  0
              0  0  1  -1  0  0   0 -1  0       0  0 -1   1  0  0   0  1  0
              1  0  0   0  0  1   0  1  0      -1  0  0   0  0 -1   0 -1  0
             -1  0  0   0  0  1   0 -1  0       1  0  0   0  0 -1   0  1  0
             -1  0  0   0  0 -1   0  1  0       1  0  0   0  0  1   0 -1  0
              1  0  0   0  0 -1   0 -1  0      -1  0  0   0  0  1   0  1  0
              0  1  0   0  0  1   1  0  0       0 -1  0   0  0 -1  -1  0  0
              0 -1  0   0  0  1  -1  0  0       0  1  0   0  0 -1   1  0  0
              0 -1  0   0  0 -1   1  0  0       0  1  0   0  0  1  -1  0  0
              0  1  0   0  0 -1  -1  0  0       0 -1  0   0  0  1   1  0  0
              0  0  1   0  1  0   1  0  0       0  0 -1   0 -1  0  -1  0  0
              0  0 -1   0  1  0  -1  0  0       0  0  1   0 -1  0   1  0  0
              0  0 -1   0 -1  0   1  0  0       0  0  1   0  1  0  -1  0  0
              0  0  1   0 -1  0  -1  0  0       0  0 -1   0  1  0   1  0  0
    tolvrs    1.00000000E-08
     typat    1  2  3  3  3
       wtk      0.00195    0.00195    0.00195    0.00195    0.00195    0.00195
                0.00195    0.00195    0.00195    0.00195    0.00195    0.00195
                0.00195    0.00195    0.00195    0.00195    0.00195    0.00195
                0.00195    0.00195    0.00195    0.00195    0.00195    0.00195
                0.00195    0.00195    0.00195    0.00195    0.00195    0.00195
                0.00195    0.00195    0.00195    0.00195    0.00195    0.00195
                0.00195    0.00195    0.00195    0.00195    0.00195    0.00195
                0.00195    0.00195    0.00195    0.00195    0.00195    0.00195
                0.00195    0.00195
                outvar1 : prtvol=0, do not print more k-points.
    xangst    0.0000000000E+00  0.0000000000E+00  0.0000000000E+00
              1.9929790677E+00  1.9929790677E+00  1.9929790677E+00
              0.0000000000E+00  1.9929790677E+00  1.9929790677E+00
              1.9929790677E+00  0.0000000000E+00  1.9929790677E+00
              1.9929790677E+00  1.9929790677E+00  0.0000000000E+00
     xcart    0.0000000000E+00  0.0000000000E+00  0.0000000000E+00
              3.7661846265E+00  3.7661846265E+00  3.7661846265E+00
              0.0000000000E+00  3.7661846265E+00  3.7661846265E+00
              3.7661846265E+00  0.0000000000E+00  3.7661846265E+00
              3.7661846265E+00  3.7661846265E+00  0.0000000000E+00
      xred    0.0000000000E+00  0.0000000000E+00  0.0000000000E+00
              5.0000000000E-01  5.0000000000E-01  5.0000000000E-01
              0.0000000000E+00  5.0000000000E-01  5.0000000000E-01
              5.0000000000E-01  0.0000000000E+00  5.0000000000E-01
              5.0000000000E-01  5.0000000000E-01  0.0000000000E+00
     znucl     56.00000   22.00000    8.00000

 chkinp: Checking input parameters for consistency, jdtset= 1.

== DATASET  1 ==================================================================

 Real(R)+Recip(G) space primitive vectors, cartesian coordinates (Bohr,Bohr^-1):
 R(1)=  7.5323693  0.0000000  0.0000000  G(1)=  0.1327604  0.0000000  0.0000000
 R(2)=  0.0000000  7.5323693  0.0000000  G(2)=  0.0000000  0.1327604  0.0000000
 R(3)=  0.0000000  0.0000000  7.5323693  G(3)=  0.0000000  0.0000000  0.1327604
 Unit cell volume ucvol=  4.2736092E+02 bohr^3
 Angles (23,13,12)=  9.00000000E+01  9.00000000E+01  9.00000000E+01 degrees
 setup1 : take into account q-point for computing boxcut.

 getcut: wavevector=  0.5000  0.2500  0.2500  ngfft=  54  54  54
         ecut(hartree)=     60.000   => boxcut(ratio)=   2.01810

--- Pseudopotential description ------------------------------------------------
- pspini: atom type   1  psp file is ../ba.wcgga.fhi
- pspatm: opening atomic psp file    ../ba.wcgga.fhi
 OPIUM generated Ba potential
  56.00000  10.00000     90731                znucl, zion, pspdat
    6   23    3    3      1179   0.00000      pspcod,pspxc,lmax,lloc,mmax,r2well
    0.00000000000000    0.00000000000000    0.00000000000000   rchrg,fchrg,qchrg
  1.013085          amesh (Hamman grid)
 pspatm: epsatm=   82.20741810
         --- l  ekb(1:nproj) -->
             0   -1.025000
             1   -0.812020
             2   -5.512288
 pspatm: atomic psp has been read  and splines computed

- pspini: atom type   2  psp file is ../ti.wcgga.fhi
- pspatm: opening atomic psp file    ../ti.wcgga.fhi
 OPIUM generated Ti potential
  22.00000  12.00000     90731                znucl, zion, pspdat
    6   23    3    3      1156   0.00000      pspcod,pspxc,lmax,lloc,mmax,r2well
    0.00000000000000    0.00000000000000    0.00000000000000   rchrg,fchrg,qchrg
  1.013085          amesh (Hamman grid)
 pspatm: epsatm=   51.36980524
         --- l  ekb(1:nproj) -->
             0   -5.227900
             1   -6.911342
             2   -8.639772
[...]
 3.70E-17 1.66E-17 1.13E-17 2.40E-16 5.55E-17 3.04E-17 2.54E-16 1.08E-16
 7.63E-16 6.11E-16 8.40E-16 3.81E-16
   0.4375 -0.3125  0.0625    1  1.65648E-15 kpt; spin; max resid(k); each band:
 3.44E-18 6.46E-19 1.05E-18 4.67E-19 7.37E-19 1.37E-17 1.48E-17 5.93E-18
 2.14E-17 5.77E-17 1.02E-17 7.76E-17 6.56E-17 1.60E-16 1.59E-16 9.43E-17
 4.93E-16 8.74E-16 1.66E-15 1.29E-16
  -0.4375 -0.3125  0.0625    1  1.65648E-15 kpt; spin; max resid(k); each band:
 3.44E-18 6.46E-19 1.05E-18 4.67E-19 7.37E-19 1.37E-17 1.48E-17 5.93E-18
 2.14E-17 5.77E-17 1.02E-17 7.76E-17 6.56E-17 1.60E-16 1.59E-16 9.43E-17
 4.93E-16 8.74E-16 1.66E-15 1.29E-16
  -0.3125 -0.3125  0.0625    1  8.39563E-16 kpt; spin; max resid(k); each band:
 3.06E-18 9.08E-19 8.40E-19 4.23E-19 1.08E-18 1.03E-17 8.56E-18 1.13E-17
 3.70E-17 1.66E-17 1.13E-17 2.40E-16 5.55E-17 3.04E-17 2.54E-16 1.08E-16
 7.63E-16 6.11E-16 8.40E-16 3.81E-16
  -0.1875 -0.3125  0.0625    1  8.97411E-16 kpt; spin; max resid(k); each band:
 2.63E-18 4.19E-19 8.12E-19 2.94E-19 1.18E-18 5.97E-18 4.84E-18 1.58E-17
 2.60E-17 6.30E-18 2.46E-18 1.52E-16 1.37E-16 1.06E-16 1.43E-16 1.88E-16
 8.97E-16 7.87E-16 4.21E-16 8.39E-16
  -0.0625 -0.3125  0.0625    1  8.59291E-16 kpt; spin; max resid(k); each band:
 1.40E-18 1.54E-19 5.51E-19 5.62E-19 7.86E-19 1.32E-17 1.57E-17 1.78E-17
 4.04E-18 6.86E-18 5.25E-18 1.11E-16 2.87E-16 1.68E-16 3.38E-16 4.15E-16
 5.82E-16 8.59E-16 2.96E-16 2.63E-16
   0.0625 -0.1875  0.0625    1  1.35570E-15 kpt; spin; max resid(k); each band:
 1.25E-18 5.08E-19 7.11E-19 7.33E-19 5.05E-19 1.57E-17 1.94E-17 1.48E-17
 1.19E-17 6.00E-18 6.61E-18 1.25E-16 6.90E-16 5.16E-16 9.88E-17 2.40E-17
 5.07E-16 4.97E-16 1.36E-15 6.55E-16
   0.1875 -0.1875  0.0625    1  1.21780E-15 kpt; spin; max resid(k); each band:
 2.57E-18 1.12E-18 9.49E-19 5.04E-19 9.26E-19 9.65E-18 7.19E-18 1.48E-17
 1.11E-17 1.87E-17 6.33E-18 2.38E-16 2.99E-16 5.69E-16 1.15E-16 2.87E-17
 3.17E-16 5.43E-16 5.85E-16 1.22E-15
 outwf : prtvol=0 or 1, do not print more k-points.

 Thirteen components of 2nd-order total energy (hartree) are
 1,2,3: 0th-order hamiltonian combined with 1st-order wavefunctions
     kin0=   2.91815285E+03 eigvalue=   3.97779588E+01  local=  -8.17758501E+02
 4,5,6: 1st-order hamiltonian combined with 1st and 0th-order wfs
 loc psp =  -1.65354500E+03  Hartree=   5.46882592E+02     xc=  -1.32154510E+02
 note that "loc psp" includes a xc core correction that could be resolved
 7,8,9: eventually, occupation + non-local contributions
    edocc=   0.00000000E+00     enl0=  -6.87895242E+01   enl1=  -3.31867674E+03
 1-9 gives the relaxation energy (to be shifted if some occ is /=2.0)
   erelax=  -2.48611087E+03
 10,11,12 Non-relaxation  contributions : frozen-wavefunctions and Ewald
 fr.local=   8.28225694E+02 fr.nonlo=   1.66652011E+03  Ewald=  -4.79289616E+00
 13,14 Frozen wf xc core corrections (1) and (2)
 frxc 1  =   0.00000000E+00  frxc 2 =   0.00000000E+00
 Resulting in :
 2DEtotal=    0.3842037696E+01 Ha. Also 2DEtotal=    0.104547162558E+03 eV
    (2DErelax=   -2.4861108715E+03 Ha. 2DEnonrelax=    2.4899529092E+03 Ha)
    (  non-var. 2DEtotal :    3.8420427208E+00 Ha)

 ---- first-order wavefunction calculations are completed ----

 ==> Compute Derivative Database <==

  2nd-order matrix (non-cartesian coordinates, masses not included,
   asr not included )
     j1       j2             matrix element
  dir pert dir pert     real part     imaginary part

   1    1   1    1         6.1189187843         0.0000000000
   1    1   2    1         0.0000000000         0.0000000000
   1    1   3    1         0.0000000003         0.0000000000
   1    1   1    2         0.0000000012         0.0000000000
   1    1   2    2        -3.2851065873         0.0000000000
   1    1   3    2        -3.2851069388         0.0000000000
   1    1   1    3         0.0000000000         1.3755102612
   1    1   2    3         0.0000000000         0.0000000000
   1    1   3    3         0.0000000000         0.0000000001
   1    1   1    4         0.0000000000         0.0000000000
   1    1   2    4         0.4566374674         0.4566374675
   1    1   3    4         0.0733256042         0.0733256042
   1    1   1    5         0.0000000002         0.0000000002
   1    1   2    5         0.0733271100         0.0733271100
   1    1   3    5         0.4566347695         0.4566347694

[...]

  Dynamical matrix, in cartesian coordinates,
   if specified in the inputs, asr has been imposed
     j1       j2             matrix element
  dir pert dir pert     real part    imaginary part

[...]

   3    5   1    1         0.0080483300        -0.0080483300
   3    5   2    1         0.0000000000         0.0000000000
   3    5   3    1         0.0000000000         0.0000000000
   3    5   1    2         0.0000000000         0.0000000000
   3    5   2    2        -0.0261090356         0.0261090356
   3    5   3    2         0.0016463416        -0.0016463416
   3    5   1    3         0.0530538161         0.0530538161
   3    5   2    3         0.0000000000         0.0000000000
   3    5   3    3         0.0000000000         0.0000000000
   3    5   1    4         0.0000000000         0.0000000000
   3    5   2    4         0.0543320742         0.0000000000
   3    5   3    4        -0.0203523019         0.0000000000
   3    5   1    5         0.0000000000         0.0000000000
   3    5   2    5         0.0061103290         0.0000000000
   3    5   3    5         0.1346472282         0.0000000000

  Phonon wavevector (reduced coordinates) :  0.50000  0.25000  0.25000
 Phonon energies in Hartree :
   4.938563E-04  5.096427E-04  5.548516E-04  1.029310E-03  1.053833E-03
   1.091219E-03  1.094789E-03  1.330916E-03  1.614454E-03  1.724361E-03
   1.825175E-03  1.896670E-03  1.948164E-03  2.175974E-03  3.262301E-03
 Phonon frequencies in cm-1    :
-  1.083889E+02  1.118537E+02  1.217759E+02  2.259074E+02  2.312895E+02
-  2.394948E+02  2.402784E+02  2.921022E+02  3.543317E+02  3.784536E+02
-  4.005795E+02  4.162710E+02  4.275725E+02  4.775711E+02  7.159922E+02

== END DATASET(S) ==============================================================

 -outvars: echo values of variables after computation  --------
     acell    7.5323692530E+00  7.5323692530E+00  7.5323692530E+00 Bohr
       amu    1.37327000E+02  4.78800000E+01  1.59994000E+01
    diemac    9.00000000E+00
      ecut    6.00000000E+01 Hartree
    etotal1   3.8420376963E+00
     fcart1   0.0000000000E+00  0.0000000000E+00  0.0000000000E+00
              0.0000000000E+00  0.0000000000E+00  0.0000000000E+00
              0.0000000000E+00  0.0000000000E+00  0.0000000000E+00
              0.0000000000E+00  0.0000000000E+00  0.0000000000E+00
              0.0000000000E+00  0.0000000000E+00  0.0000000000E+00
    irdwfk         1
      iscf         5
       ixc        23
    jdtset      1
       kpt    6.25000000E-02  6.25000000E-02  6.25000000E-02
              1.87500000E-01  6.25000000E-02  6.25000000E-02
              3.12500000E-01  6.25000000E-02  6.25000000E-02
              4.37500000E-01  6.25000000E-02  6.25000000E-02
             -4.37500000E-01  6.25000000E-02  6.25000000E-02
             -3.12500000E-01  6.25000000E-02  6.25000000E-02
             -1.87500000E-01  6.25000000E-02  6.25000000E-02
             -6.25000000E-02  6.25000000E-02  6.25000000E-02
              6.25000000E-02  1.87500000E-01  6.25000000E-02
              1.87500000E-01  1.87500000E-01  6.25000000E-02
              3.12500000E-01  1.87500000E-01  6.25000000E-02
              4.37500000E-01  1.87500000E-01  6.25000000E-02
             -4.37500000E-01  1.87500000E-01  6.25000000E-02
             -3.12500000E-01  1.87500000E-01  6.25000000E-02
             -1.87500000E-01  1.87500000E-01  6.25000000E-02
             -6.25000000E-02  1.87500000E-01  6.25000000E-02
              6.25000000E-02  3.12500000E-01  6.25000000E-02
              1.87500000E-01  3.12500000E-01  6.25000000E-02
              3.12500000E-01  3.12500000E-01  6.25000000E-02
              4.37500000E-01  3.12500000E-01  6.25000000E-02
             -4.37500000E-01  3.12500000E-01  6.25000000E-02
             -3.12500000E-01  3.12500000E-01  6.25000000E-02
             -1.87500000E-01  3.12500000E-01  6.25000000E-02
             -6.25000000E-02  3.12500000E-01  6.25000000E-02
              6.25000000E-02  4.37500000E-01  6.25000000E-02
              1.87500000E-01  4.37500000E-01  6.25000000E-02
              3.12500000E-01  4.37500000E-01  6.25000000E-02
              4.37500000E-01  4.37500000E-01  6.25000000E-02
             -4.37500000E-01  4.37500000E-01  6.25000000E-02
             -3.12500000E-01  4.37500000E-01  6.25000000E-02
             -1.87500000E-01  4.37500000E-01  6.25000000E-02
             -6.25000000E-02  4.37500000E-01  6.25000000E-02
              6.25000000E-02 -4.37500000E-01  6.25000000E-02
              1.87500000E-01 -4.37500000E-01  6.25000000E-02
              3.12500000E-01 -4.37500000E-01  6.25000000E-02
              4.37500000E-01 -4.37500000E-01  6.25000000E-02
             -4.37500000E-01 -4.37500000E-01  6.25000000E-02
             -3.12500000E-01 -4.37500000E-01  6.25000000E-02
             -1.87500000E-01 -4.37500000E-01  6.25000000E-02
             -6.25000000E-02 -4.37500000E-01  6.25000000E-02
              6.25000000E-02 -3.12500000E-01  6.25000000E-02
              1.87500000E-01 -3.12500000E-01  6.25000000E-02
              3.12500000E-01 -3.12500000E-01  6.25000000E-02
              4.37500000E-01 -3.12500000E-01  6.25000000E-02
             -4.37500000E-01 -3.12500000E-01  6.25000000E-02
             -3.12500000E-01 -3.12500000E-01  6.25000000E-02
             -1.87500000E-01 -3.12500000E-01  6.25000000E-02
             -6.25000000E-02 -3.12500000E-01  6.25000000E-02
              6.25000000E-02 -1.87500000E-01  6.25000000E-02
              1.87500000E-01 -1.87500000E-01  6.25000000E-02
                       outvar1 : prtvol=0, do not print more k-points.
   kptrlen    6.02589540E+01
    kptopt         3
  kptrlatt    8  0  0   0  8  0   0  0  8
P    mkmem        32
P   mkqmem        32
P   mk1mem        32
     natom         5
     nband        20
    ndtset         1
     ngfft        54      54      54
      nkpt       512
      nqpt         1
     nstep        70
      nsym        48
    ntypat         3
       occ    2.000000  2.000000  2.000000  2.000000  2.000000  2.000000
              2.000000  2.000000  2.000000  2.000000  2.000000  2.000000
              2.000000  2.000000  2.000000  2.000000  2.000000  2.000000
              2.000000  2.000000
 optdriver         1
    prtden         0
     prtwf         0
       qpt    5.00000000E-01  2.50000000E-01  2.50000000E-01
   rfatpol         1       5
     rfdir         1       1       1
    rfphon         1
    shiftk    5.00000000E-01  5.00000000E-01  5.00000000E-01
   spgroup       221
    strten1   0.0000000000E+00  0.0000000000E+00  0.0000000000E+00
              0.0000000000E+00  0.0000000000E+00  0.0000000000E+00
    symrel    1  0  0   0  1  0   0  0  1      -1  0  0   0 -1  0   0  0 -1
             -1  0  0   0  1  0   0  0 -1       1  0  0   0 -1  0   0  0  1
             -1  0  0   0 -1  0   0  0  1       1  0  0   0  1  0   0  0 -1
              1  0  0   0 -1  0   0  0 -1      -1  0  0   0  1  0   0  0  1
              0  1  0   1  0  0   0  0  1       0 -1  0  -1  0  0   0  0 -1
              0 -1  0   1  0  0   0  0 -1       0  1  0  -1  0  0   0  0  1
              0 -1  0  -1  0  0   0  0  1       0  1  0   1  0  0   0  0 -1
              0  1  0  -1  0  0   0  0 -1       0 -1  0   1  0  0   0  0  1
              0  0  1   1  0  0   0  1  0       0  0 -1  -1  0  0   0 -1  0
              0  0 -1   1  0  0   0 -1  0       0  0  1  -1  0  0   0  1  0
              0  0 -1  -1  0  0   0  1  0       0  0  1   1  0  0   0 -1  0
              0  0  1  -1  0  0   0 -1  0       0  0 -1   1  0  0   0  1  0
              1  0  0   0  0  1   0  1  0      -1  0  0   0  0 -1   0 -1  0
             -1  0  0   0  0  1   0 -1  0       1  0  0   0  0 -1   0  1  0
             -1  0  0   0  0 -1   0  1  0       1  0  0   0  0  1   0 -1  0
              1  0  0   0  0 -1   0 -1  0      -1  0  0   0  0  1   0  1  0
              0  1  0   0  0  1   1  0  0       0 -1  0   0  0 -1  -1  0  0
              0 -1  0   0  0  1  -1  0  0       0  1  0   0  0 -1   1  0  0
              0 -1  0   0  0 -1   1  0  0       0  1  0   0  0  1  -1  0  0
              0  1  0   0  0 -1  -1  0  0       0 -1  0   0  0  1   1  0  0
              0  0  1   0  1  0   1  0  0       0  0 -1   0 -1  0  -1  0  0
              0  0 -1   0  1  0  -1  0  0       0  0  1   0 -1  0   1  0  0
              0  0 -1   0 -1  0   1  0  0       0  0  1   0  1  0  -1  0  0
              0  0  1   0 -1  0  -1  0  0       0  0 -1   0  1  0   1  0  0
    tolvrs    1.00000000E-08
     typat    1  2  3  3  3
       wtk      0.00195    0.00195    0.00195    0.00195    0.00195    0.00195
                0.00195    0.00195    0.00195    0.00195    0.00195    0.00195
                0.00195    0.00195    0.00195    0.00195    0.00195    0.00195
                0.00195    0.00195    0.00195    0.00195    0.00195    0.00195
                0.00195    0.00195    0.00195    0.00195    0.00195    0.00195
                0.00195    0.00195    0.00195    0.00195    0.00195    0.00195
                0.00195    0.00195    0.00195    0.00195    0.00195    0.00195
                0.00195    0.00195    0.00195    0.00195    0.00195    0.00195
                0.00195    0.00195
                outvar1 : prtvol=0, do not print more k-points.
    xangst    0.0000000000E+00  0.0000000000E+00  0.0000000000E+00
              1.9929790677E+00  1.9929790677E+00  1.9929790677E+00
              0.0000000000E+00  1.9929790677E+00  1.9929790677E+00
              1.9929790677E+00  0.0000000000E+00  1.9929790677E+00
              1.9929790677E+00  1.9929790677E+00  0.0000000000E+00
     xcart    0.0000000000E+00  0.0000000000E+00  0.0000000000E+00
              3.7661846265E+00  3.7661846265E+00  3.7661846265E+00
              0.0000000000E+00  3.7661846265E+00  3.7661846265E+00
              3.7661846265E+00  0.0000000000E+00  3.7661846265E+00
              3.7661846265E+00  3.7661846265E+00  0.0000000000E+00
      xred    0.0000000000E+00  0.0000000000E+00  0.0000000000E+00
              5.0000000000E-01  5.0000000000E-01  5.0000000000E-01
              0.0000000000E+00  5.0000000000E-01  5.0000000000E-01
              5.0000000000E-01  0.0000000000E+00  5.0000000000E-01
              5.0000000000E-01  5.0000000000E-01  0.0000000000E+00
     znucl     56.00000   22.00000    8.00000

- Timing analysis has been suppressed with timopt=0

 Suggested references for the acknowledgment of ABINIT usage.

 [1] First-principles responses of solids to atomic displacements and homogeneous electric fields:,
 implementation of a conjugate-gradient algorithm. X. Gonze, Phys. Rev. B55, 10337 (1997).
 Comment : Non-vanishing rfphon and/or rfelfd, in the norm-conserving case.

 [2] Dynamical matrices, Born effective charges, dielectric permittivity tensors, and ,
 interatomic force constants from density-functional perturbation theory,
 X. Gonze and C. Lee, Phys. Rev. B55, 10355 (1997).
 Comment : Non-vanishing rfphon and/or rfelfd, in the norm-conserving case.

 [3] Ab initio pseudopotentials for electronic structure calculations of poly-atomic systems,
 using density-functional theory.
 M. Fuchs, M. Scheffler, Comput. Phys. Commun. 119, 67 (1999).
 Comment : Some pseudopotential generated using the FHI code were used.

 [4] A brief introduction to the ABINIT software package.
 X. Gonze, G.-M. Rignanese, M. Verstraete, J.-M. Beuken, Y. Pouillon, R. Caracas, F. Jollet,
 M. Torrent, G. Zerah, M. Mikami, Ph. Ghosez, M. Veithen, J.-Y. Raty, V. Olevano, F. Bruneval,
 L. Reining, R. Godby, G. Onida, D.R. Hamann, and D.C. Allan.
 Z. Kristallogr. 220, 558-562 (2005).
 Comment : the second generic paper describing the ABINIT project. Note that this paper
 should be cited, especially if you are using the GW part of ABINIT, as the authors
 of this part are not in the list of authors of the first paper.
 Note that it should not redistributed (Copyright by Oldenburg Wissenshaftverlag,
 the licence allows the authors to put it on the Web).

 [5] First-principles computation of material properties : the ABINIT software project.
 X. Gonze, J.-M. Beuken, R. Caracas, F. Detraux, M. Fuchs, G.-M. Rignanese, L. Sindic,
 M. Verstraete, G. Zerah, F. Jollet, M. Torrent, A. Roy, M. Mikami, Ph. Ghosez, J.-Y. Raty, D.C. Allan.
 Comment : the original paper describing the ABINIT project.
-

 Calculation completed.
.Delivered    8 WARNINGs and   0 COMMENTs to log file.